7515
1 3 5 6 12
2 3 7 8 14
3 3 8 9 15
4 2 10 18
5 4 1 11 12 20
6 4 1 12 13 21
7 4 2 13 14 22
8 5 2 3 14 15 23
9 4 3 15 16 24
10 4 4 18 19 31
11 4 5 19 20 32
12 6 1 5 6 20 21 33
13 5 6 7 21 22 34
14 6 2 7 8 22 23 35
15 6 3 8 9 23 24 36
16 4 9 24 25 37
17 3 29 30 44
18 5 4 10 30 31 45
19 5 10 11 31 32 46
20 6 5 11 12 32 33 47
21 6 6 12 13 33 34 48
22 6 7 13 14 34 35 49
23 6 8 14 15 35 36 50
24 6 9 15 16 36 37 51
25 4 16 37 38 52
26 3 38 39 53
27 3 39 40 54
28 3 42 43 58
29 4 17 43 44 59
30 5 17 18 44 45 60
31 6 10 18 19 45 46 61
32 6 11 19 20 46 47 62
33 6 12 20 21 47 48 63
34 6 13 21 22 48 49 64
35 6 14 22 23 49 50 65
36 6 15 23 24 50 51 66
37 6 16 24 25 51 52 67
38 5 25 26 52 53 68
39 5 26 27 53 54 69
40 4 27 54 55 70
41 3 56 57 73
42 4 28 57 58 74
43 5 28 29 58 59 75
44 6 17 29 30 59 60 76
45 6 18 30 31 60 61 77
46 6 19 31 32 61 62 78
47 6 20 32 33 62 63 79
48 6 21 33 34 63 64 80
49 6 22 34 35 64 65 81
50 6 23 35 36 65 66 82
51 6 24 36 37 66 67 83
52 6 25 37 38 67 68 84
53 6 26 38 39 68 69 85
54 6 27 39 40 69 70 86
55 4 40 70 71 87
56 4 41 72 73 92
57 5 41 42 73 74 93
58 6 28 42 43 74 75 94
59 6 29 43 44 75 76 95
60 6 30 44 45 76 77 96
61 6 31 45 46 77 78 97
62 6 32 46 47 78 79 98
63 6 33 47 48 79 80 99
64 6 34 48 49 80 81 100
65 6 35 49 50 81 82 101
66 6 36 50 51 82 83 102
67 6 37 51 52 83 84 103
68 6 38 52 53 84 85 104
69 6 39 53 54 85 86 105
70 6 40 54 55 86 87 106
71 4 55 87 88 107
72 4 56 91 92 112
73 6 41 56 57 92 93 113
74 6 42 57 58 93 94 114
75 6 43 58 59 94 95 115
76 6 44 59 60 95 96 116
77 6 45 60 61 96 97 117
78 6 46 61 62 97 98 118
79 6 47 62 63 98 99 119
80 6 48 63 64 99 100 120
81 6 49 64 65 100 101 121
82 6 50 65 66 101 102 122
83 6 51 66 67 102 103 123
84 6 52 67 68 103 104 124
85 6 53 68 69 104 105 125
86 6 54 69 70 105 106 126
87 6 55 70 71 106 107 127
88 4 71 107 108 128
89 3 109 110 131
90 3 110 111 132
91 4 72 111 112 133
92 6 56 72 73 112 113 134
93 6 57 73 74 113 114 135
94 6 58 74 75 114 115 136
95 6 59 75 76 115 116 137
96 6 60 76 77 116 117 138
97 6 61 77 78 117 118 139
98 6 62 78 79 118 119 140
99 6 63 79 80 119 120 141
100 6 64 80 81 120 121 142
101 6 65 81 82 121 122 143
102 6 66 82 83 122 123 144
103 6 67 83 84 123 124 145
104 6 68 84 85 124 125 146
105 6 69 85 86 125 126 147
106 6 70 86 87 126 127 148
107 6 71 87 88 127 128 149
108 4 88 128 129 150
109 3 89 131 154
110 5 89 90 131 132 155
111 5 90 91 132 133 156
112 6 72 91 92 133 134 157
113 6 73 92 93 134 135 158
114 6 74 93 94 135 136 159
115 6 75 94 95 136 137 160
116 6 76 95 96 137 138 161
117 6 77 96 97 138 139 162
118 6 78 97 98 139 140 163
119 6 79 98 99 140 141 164
120 6 80 99 100 141 142 165
121 6 81 100 101 142 143 166
122 6 82 101 102 143 144 167
123 6 83 102 103 144 145 168
124 6 84 103 104 145 146 169
125 6 85 104 105 146 147 170
126 6 86 105 106 147 148 171
127 6 87 106 107 148 149 172
128 6 88 107 108 149 150 173
129 4 108 150 151 174
130 3 151 152 175
131 6 89 109 110 154 155 178
132 6 90 110 111 155 156 179
133 6 91 111 112 156 157 180
134 6 92 112 113 157 158 181
135 6 93 113 114 158 159 182
136 6 94 114 115 159 160 183
137 6 95 115 116 160 161 184
138 6 96 116 117 161 162 185
139 6 97 117 118 162 163 186
140 6 98 118 119 163 164 187
141 6 99 119 120 164 165 188
142 6 100 120 121 165 166 189
143 6 101 121 122 166 167 190
144 6 102 122 123 167 168 191
145 6 103 123 124 168 169 192
146 6 104 124 125 169 170 193
147 6 105 125 126 170 171 194
148 6 106 126 127 171 172 195
149 6 107 127 128 172 173 196
150 6 108 128 129 173 174 197
151 5 129 130 174 175 198
152 4 130 175 176 199
153 2 177 203
154 4 109 131 178 204
155 6 110 131 132 178 179 205
156 6 111 132 133 179 180 206
157 6 112 133 134 180 181 207
158 6 113 134 135 181 182 208
159 6 114 135 136 182 183 209
160 6 115 136 137 183 184 210
161 6 116 137 138 184 185 211
162 6 117 138 139 185 186 212
163 6 118 139 140 186 187 213
164 6 119 140 141 187 188 214
165 6 120 141 142 188 189 215
166 6 121 142 143 189 190 216
167 6 122 143 144 190 191 217
168 6 123 144 145 191 192 218
169 6 124 145 146 192 193 219
170 6 125 146 147 193 194 220
171 6 126 147 148 194 195 221
172 6 127 148 149 195 196 222
173 6 128 149 150 196 197 223
174 6 129 150 151 197 198 224
175 6 130 151 152 198 199 225
176 4 152 199 200 226
177 2 153 203
178 6 131 154 155 204 205 232
179 6 132 155 156 205 206 233
180 6 133 156 157 206 207 234
181 6 134 157 158 207 208 235
182 6 135 158 159 208 209 236
183 6 136 159 160 209 210 237
184 6 137 160 161 210 211 238
185 6 138 161 162 211 212 239
186 6 139 162 163 212 213 240
187 6 140 163 164 213 214 241
188 6 141 164 165 214 215 242
189 6 142 165 166 215 216 243
190 6 143 166 167 216 217 244
191 6 144 167 168 217 218 245
192 6 145 168 169 218 219 246
193 6 146 169 170 219 220 247
194 6 147 170 171 220 221 248
195 6 148 171 172 221 222 249
196 6 149 172 173 222 223 250
197 6 150 173 174 223 224 251
198 6 151 174 175 224 225 252
199 6 152 175 176 225 226 253
200 4 176 226 227 254
201 3 227 228 255
202 3 230 231 258
203 3 153 177 260
204 4 154 178 232 261
205 6 155 178 179 232 233 262
206 6 156 179 180 233 234 263
207 6 157 180 181 234 235 264
208 6 158 181 182 235 236 265
209 6 159 182 183 236 237 266
210 6 160 183 184 237 238 267
211 6 161 184 185 238 239 268
212 6 162 185 186 239 240 269
213 6 163 186 187 240 241 270
214 6 164 187 188 241 242 271
215 6 165 188 189 242 243 272
216 6 166 189 190 243 244 273
217 6 167 190 191 244 245 274
218 6 168 191 192 245 246 275
219 6 169 192 193 246 247 276
220 6 170 193 194 247 248 277
221 6 171 194 195 248 249 278
222 6 172 195 196 249 250 279
223 6 173 196 197 250 251 280
224 6 174 197 198 251 252 281
225 6 175 198 199 252 253 282
226 6 176 199 200 253 254 283
227 5 200 201 254 255 284
228 4 201 255 256 285
229 3 256 257 286
230 4 202 257 258 287
231 3 202 258 288
232 6 178 204 205 261 262 291
233 6 179 205 206 262 263 292
234 6 180 206 207 263 264 293
235 6 181 207 208 264 265 294
236 6 182 208 209 265 266 295
237 6 183 209 210 266 267 296
238 6 184 210 211 267 268 297
239 6 185 211 212 268 269 298
240 6 186 212 213 269 270 299
241 6 187 213 214 270 271 300
242 6 188 214 215 271 272 301
243 6 189 215 216 272 273 302
244 6 190 216 217 273 274 303
245 6 191 217 218 274 275 304
246 6 192 218 219 275 276 305
247 6 193 219 220 276 277 306
248 6 194 220 221 277 278 307
249 6 195 221 222 278 279 308
250 6 196 222 223 279 280 309
251 6 197 223 224 280 281 310
252 6 198 224 225 281 282 311
253 6 199 225 226 282 283 312
254 6 200 226 227 283 284 313
255 6 201 227 228 284 285 314
256 5 228 229 285 286 315
257 5 229 230 286 287 316
258 6 202 230 231 287 288 317
259 3 289 290 318
260 3 203 290 319
261 4 204 232 291 320
262 6 205 232 233 291 292 321
263 6 206 233 234 292 293 322
264 6 207 234 235 293 294 323
265 6 208 235 236 294 295 324
266 6 209 236 237 295 296 325
267 6 210 237 238 296 297 326
268 6 211 238 239 297 298 327
269 6 212 239 240 298 299 328
270 6 213 240 241 299 300 329
271 6 214 241 242 300 301 330
272 6 215 242 243 301 302 331
273 6 216 243 244 302 303 332
274 6 217 244 245 303 304 333
275 6 218 245 246 304 305 334
276 6 219 246 247 305 306 335
277 6 220 247 248 306 307 336
278 6 221 248 249 307 308 337
279 6 222 249 250 308 309 338
280 6 223 250 251 309 310 339
281 6 224 251 252 310 311 340
282 6 225 252 253 311 312 341
283 6 226 253 254 312 313 342
284 6 227 254 255 313 314 343
285 6 228 255 256 314 315 344
286 6 229 256 257 315 316 345
287 6 230 257 258 316 317 346
288 3 231 258 317
289 2 259 318
290 5 259 260 318 319 347
291 6 232 261 262 320 321 349
292 6 233 262 263 321 322 350
293 6 234 263 264 322 323 351
294 6 235 264 265 323 324 352
295 6 236 265 266 324 325 353
296 6 237 266 267 325 326 354
297 6 238 267 268 326 327 355
298 6 239 268 269 327 328 356
299 6 240 269 270 328 329 357
300 6 241 270 271 329 330 358
301 6 242 271 272 330 331 359
302 6 243 272 273 331 332 360
303 6 244 273 274 332 333 361
304 6 245 274 275 333 334 362
305 6 246 275 276 334 335 363
306 6 247 276 277 335 336 364
307 6 248 277 278 336 337 365
308 6 249 278 279 337 338 366
309 6 250 279 280 338 339 367
310 6 251 280 281 339 340 368
311 6 252 281 282 340 341 369
312 6 253 282 283 341 342 370
313 6 254 283 284 342 343 371
314 6 255 284 285 343 344 372
315 6 256 285 286 344 345 373
316 6 257 286 287 345 346 374
317 5 258 287 288 346 375
318 4 259 289 290 347
319 5 260 290 347 348 376
320 5 261 291 348 349 377
321 6 262 291 292 349 350 378
322 6 263 292 293 350 351 379
323 6 264 293 294 351 352 380
324 6 265 294 295 352 353 381
325 6 266 295 296 353 354 382
326 6 267 296 297 354 355 383
327 6 268 297 298 355 356 384
328 6 269 298 299 356 357 385
329 6 270 299 300 357 358 386
330 6 271 300 301 358 359 387
331 6 272 301 302 359 360 388
332 6 273 302 303 360 361 389
333 6 274 303 304 361 362 390
334 6 275 304 305 362 363 391
335 6 276 305 306 363 364 392
336 6 277 306 307 364 365 393
337 6 278 307 308 365 366 394
338 6 279 308 309 366 367 395
339 6 280 309 310 367 368 396
340 6 281 310 311 368 369 397
341 6 282 311 312 369 370 398
342 6 283 312 313 370 371 399
343 6 284 313 314 371 372 400
344 6 285 314 315 372 373 401
345 6 286 315 316 373 374 402
346 6 287 316 317 374 375 403
347 5 290 318 319 376 405
348 5 319 320 376 377 406
349 6 291 320 321 377 378 407
350 6 292 321 322 378 379 408
351 6 293 322 323 379 380 409
352 6 294 323 324 380 381 410
353 6 295 324 325 381 382 411
354 6 296 325 326 382 383 412
355 6 297 326 327 383 384 413
356 6 298 327 328 384 385 414
357 6 299 328 329 385 386 415
358 6 300 329 330 386 387 416
359 6 301 330 331 387 388 417
360 6 302 331 332 388 389 418
361 6 303 332 333 389 390 419
362 6 304 333 334 390 391 420
363 6 305 334 335 391 392 421
364 6 306 335 336 392 393 422
365 6 307 336 337 393 394 423
366 6 308 337 338 394 395 424
367 6 309 338 339 395 396 425
368 6 310 339 340 396 397 426
369 6 311 340 341 397 398 427
370 6 312 341 342 398 399 428
371 6 313 342 343 399 400 429
372 6 314 343 344 400 401 430
373 6 315 344 345 401 402 431
374 6 316 345 346 402 403 432
375 5 317 346 403 404 433
376 6 319 347 348 405 406 436
377 6 320 348 349 406 407 437
378 6 321 349 350 407 408 438
379 6 322 350 351 408 409 439
380 6 323 351 352 409 410 440
381 6 324 352 353 410 411 441
382 6 325 353 354 411 412 442
383 6 326 354 355 412 413 443
384 6 327 355 356 413 414 444
385 6 328 356 357 414 415 445
386 6 329 357 358 415 416 446
387 6 330 358 359 416 417 447
388 6 331 359 360 417 418 448
389 6 332 360 361 418 419 449
390 6 333 361 362 419 420 450
391 6 334 362 363 420 421 451
392 6 335 363 364 421 422 452
393 6 336 364 365 422 423 453
394 6 337 365 366 423 424 454
395 6 338 366 367 424 425 455
396 6 339 367 368 425 426 456
397 6 340 368 369 426 427 457
398 6 341 369 370 427 428 458
399 6 342 370 371 428 429 459
400 6 343 371 372 429 430 460
401 6 344 372 373 430 431 461
402 6 345 373 374 431 432 462
403 6 346 374 375 432 433 463
404 3 375 433 464
405 5 347 376 435 436 467
406 6 348 376 377 436 437 468
407 6 349 377 378 437 438 469
408 6 350 378 379 438 439 470
409 6 351 379 380 439 440 471
410 6 352 380 381 440 441 472
411 6 353 381 382 441 442 473
412 6 354 382 383 442 443 474
413 6 355 383 384 443 444 475
414 6 356 384 385 444 445 476
415 6 357 385 386 445 446 477
416 6 358 386 387 446 447 478
417 6 359 387 388 447 448 479
418 6 360 388 389 448 449 480
419 6 361 389 390 449 450 481
420 6 362 390 391 450 451 482
421 6 363 391 392 451 452 483
422 6 364 392 393 452 453 484
423 6 365 393 394 453 454 485
424 6 366 394 395 454 455 486
425 6 367 395 396 455 456 487
426 6 368 396 397 456 457 488
427 6 369 397 398 457 458 489
428 6 370 398 399 458 459 490
429 6 371 399 400 459 460 491
430 6 372 400 401 460 461 492
431 6 373 401 402 461 462 493
432 6 374 402 403 462 463 494
433 6 375 403 404 463 464 495
434 3 465 466 497
435 4 405 466 467 498
436 6 376 405 406 467 468 499
437 6 377 406 407 468 469 500
438 6 378 407 408 469 470 501
439 6 379 408 409 470 471 502
440 6 380 409 410 471 472 503
441 6 381 410 411 472 473 504
442 6 382 411 412 473 474 505
443 6 383 412 413 474 475 506
444 6 384 413 414 475 476 507
445 6 385 414 415 476 477 508
446 6 386 415 416 477 478 509
447 6 387 416 417 478 479 510
448 6 388 417 418 479 480 511
449 6 389 418 419 480 481 512
450 6 390 419 420 481 482 513
451 6 391 420 421 482 483 514
452 6 392 421 422 483 484 515
453 6 393 422 423 484 485 516
454 6 394 423 424 485 486 517
455 6 395 424 425 486 487 518
456 6 396 425 426 487 488 519
457 6 397 426 427 488 489 520
458 6 398 427 428 489 490 521
459 6 399 428 429 490 491 522
460 6 400 429 430 491 492 523
461 6 401 430 431 492 493 524
462 6 402 431 432 493 494 525
463 6 403 432 433 494 495 526
464 5 404 433 495 496 527
465 3 434 497 528
466 5 434 435 497 498 529
467 6 405 435 436 498 499 530
468 6 406 436 437 499 500 531
469 6 407 437 438 500 501 532
470 6 408 438 439 501 502 533
471 6 409 439 440 502 503 534
472 6 410 440 441 503 504 535
473 6 411 441 442 504 505 536
474 6 412 442 443 505 506 537
475 6 413 443 444 506 507 538
476 6 414 444 445 507 508 539
477 6 415 445 446 508 509 540
478 6 416 446 447 509 510 541
479 6 417 447 448 510 511 542
480 6 418 448 449 511 512 543
481 6 419 449 450 512 513 544
482 6 420 450 451 513 514 545
483 6 421 451 452 514 515 546
484 6 422 452 453 515 516 547
485 6 423 453 454 516 517 548
486 6 424 454 455 517 518 549
487 6 425 455 456 518 519 550
488 6 426 456 457 519 520 551
489 6 427 457 458 520 521 552
490 6 428 458 459 521 522 553
491 6 429 459 460 522 523 554
492 6 430 460 461 523 524 555
493 6 431 461 462 524 525 556
494 6 432 462 463 525 526 557
495 6 433 463 464 526 527 558
496 3 464 527 559
497 6 434 465 466 528 529 560
498 6 435 466 467 529 530 561
499 6 436 467 468 530 531 562
500 6 437 468 469 531 532 563
501 6 438 469 470 532 533 564
502 6 439 470 471 533 534 565
503 6 440 471 472 534 535 566
504 6 441 472 473 535 536 567
505 6 442 473 474 536 537 568
506 6 443 474 475 537 538 569
507 6 444 475 476 538 539 570
508 6 445 476 477 539 540 571
509 6 446 477 478 540 541 572
510 6 447 478 479 541 542 573
511 6 448 479 480 542 543 574
512 6 449 480 481 543 544 575
513 6 450 481 482 544 545 576
514 6 451 482 483 545 546 577
515 6 452 483 484 546 547 578
516 6 453 484 485 547 548 579
517 6 454 485 486 548 549 580
518 6 455 486 487 549 550 581
519 6 456 487 488 550 551 582
520 6 457 488 489 551 552 583
521 6 458 489 490 552 553 584
522 6 459 490 491 553 554 585
523 6 460 491 492 554 555 586
524 6 461 492 493 555 556 587
525 6 462 493 494 556 557 588
526 6 463 494 495 557 558 589
527 6 464 495 496 558 559 590
528 4 465 497 560 591
529 6 466 497 498 560 561 592
530 6 467 498 499 561 562 593
531 6 468 499 500 562 563 594
532 6 469 500 501 563 564 595
533 6 470 501 502 564 565 596
534 6 471 502 503 565 566 597
535 6 472 503 504 566 567 598
536 6 473 504 505 567 568 599
537 6 474 505 506 568 569 600
538 6 475 506 507 569 570 601
539 6 476 507 508 570 571 602
540 6 477 508 509 571 572 603
541 6 478 509 510 572 573 604
542 6 479 510 511 573 574 605
543 6 480 511 512 574 575 606
544 6 481 512 513 575 576 607
545 6 482 513 514 576 577 608
546 6 483 514 515 577 578 609
547 6 484 515 516 578 579 610
548 6 485 516 517 579 580 611
549 6 486 517 518 580 581 612
550 6 487 518 519 581 582 613
551 6 488 519 520 582 583 614
552 6 489 520 521 583 584 615
553 6 490 521 522 584 585 616
554 6 491 522 523 585 586 617
555 6 492 523 524 586 587 618
556 6 493 524 525 587 588 619
557 6 494 525 526 588 589 620
558 6 495 526 527 589 590 621
559 3 496 527 590
560 6 497 528 529 591 592 622
561 6 498 529 530 592 593 623
562 6 499 530 531 593 594 624
563 6 500 531 532 594 595 625
564 6 501 532 533 595 596 626
565 6 502 533 534 596 597 627
566 6 503 534 535 597 598 628
567 6 504 535 536 598 599 629
568 6 505 536 537 599 600 630
569 6 506 537 538 600 601 631
570 6 507 538 539 601 602 632
571 6 508 539 540 602 603 633
572 6 509 540 541 603 604 634
573 6 510 541 542 604 605 635
574 6 511 542 543 605 606 636
575 6 512 543 544 606 607 637
576 6 513 544 545 607 608 638
577 6 514 545 546 608 609 639
578 6 515 546 547 609 610 640
579 6 516 547 548 610 611 641
580 6 517 548 549 611 612 642
581 6 518 549 550 612 613 643
582 6 519 550 551 613 614 644
583 6 520 551 552 614 615 645
584 6 521 552 553 615 616 646
585 6 522 553 554 616 617 647
586 6 523 554 555 617 618 648
587 6 524 555 556 618 619 649
588 6 525 556 557 619 620 650
589 6 526 557 558 620 621 651
590 5 527 558 559 621 652
591 4 528 560 622 653
592 6 529 560 561 622 623 654
593 6 530 561 562 623 624 655
594 6 531 562 563 624 625 656
595 6 532 563 564 625 626 657
596 6 533 564 565 626 627 658
597 6 534 565 566 627 628 659
598 6 535 566 567 628 629 660
599 6 536 567 568 629 630 661
600 6 537 568 569 630 631 662
601 6 538 569 570 631 632 663
602 6 539 570 571 632 633 664
603 6 540 571 572 633 634 665
604 6 541 572 573 634 635 666
605 6 542 573 574 635 636 667
606 6 543 574 575 636 637 668
607 6 544 575 576 637 638 669
608 6 545 576 577 638 639 670
609 6 546 577 578 639 640 671
610 6 547 578 579 640 641 672
611 6 548 579 580 641 642 673
612 6 549 580 581 642 643 674
613 6 550 581 582 643 644 675
614 6 551 582 583 644 645 676
615 6 552 583 584 645 646 677
616 6 553 584 585 646 647 678
617 6 554 585 586 647 648 679
618 6 555 586 587 648 649 680
619 6 556 587 588 649 650 681
620 6 557 588 589 650 651 682
621 6 558 589 590 651 652 683
622 6 560 591 592 653 654 684
623 6 561 592 593 654 655 685
624 6 562 593 594 655 656 686
625 6 563 594 595 656 657 687
626 6 564 595 596 657 658 688
627 6 565 596 597 658 659 689
628 6 566 597 598 659 660 690
629 6 567 598 599 660 661 691
630 6 568 599 600 661 662 692
631 6 569 600 601 662 663 693
632 6 570 601 602 663 664 694
633 6 571 602 603 664 665 695
634 6 572 603 604 665 666 696
635 6 573 604 605 666 667 697
636 6 574 605 606 667 668 698
637 6 575 606 607 668 669 699
638 6 576 607 608 669 670 700
639 6 577 608 609 670 671 701
640 6 578 609 610 671 672 702
641 6 579 610 611 672 673 703
642 6 580 611 612 673 674 704
643 6 581 612 613 674 675 705
644 6 582 613 614 675 676 706
645 6 583 614 615 676 677 707
646 6 584 615 616 677 678 708
647 6 585 616 617 678 679 709
648 6 586 617 618 679 680 710
649 6 587 618 619 680 681 711
650 6 588 619 620 681 682 712
651 6 589 620 621 682 683 713
652 4 590 621 683 714
653 4 591 622 684 715
654 6 592 622 623 684 685 716
655 6 593 623 624 685 686 717
656 6 594 624 625 686 687 718
657 6 595 625 626 687 688 719
658 6 596 626 627 688 689 720
659 6 597 627 628 689 690 721
660 6 598 628 629 690 691 722
661 6 599 629 630 691 692 723
662 6 600 630 631 692 693 724
663 6 601 631 632 693 694 725
664 6 602 632 633 694 695 726
665 6 603 633 634 695 696 727
666 6 604 634 635 696 697 728
667 6 605 635 636 697 698 729
668 6 606 636 637 698 699 730
669 6 607 637 638 699 700 731
670 6 608 638 639 700 701 732
671 6 609 639 640 701 702 733
672 6 610 640 641 702 703 734
673 6 611 641 642 703 704 735
674 6 612 642 643 704 705 736
675 6 613 643 644 705 706 737
676 6 614 644 645 706 707 738
677 6 615 645 646 707 708 739
678 6 616 646 647 708 709 740
679 6 617 647 648 709 710 741
680 6 618 648 649 710 711 742
681 6 619 649 650 711 712 743
682 6 620 650 651 712 713 744
683 6 621 651 652 713 714 745
684 6 622 653 654 715 716 746
685 6 623 654 655 716 717 747
686 6 624 655 656 717 718 748
687 6 625 656 657 718 719 749
688 6 626 657 658 719 720 750
689 6 627 658 659 720 721 751
690 6 628 659 660 721 722 752
691 6 629 660 661 722 723 753
692 6 630 661 662 723 724 754
693 6 631 662 663 724 725 755
694 6 632 663 664 725 726 756
695 6 633 664 665 726 727 757
696 6 634 665 666 727 728 758
697 6 635 666 667 728 729 759
698 6 636 667 668 729 730 760
699 6 637 668 669 730 731 761
700 6 638 669 670 731 732 762
701 6 639 670 671 732 733 763
702 6 640 671 672 733 734 764
703 6 641 672 673 734 735 765
704 6 642 673 674 735 736 766
705 6 643 674 675 736 737 767
706 6 644 675 676 737 738 768
707 6 645 676 677 738 739 769
708 6 646 677 678 739 740 770
709 6 647 678 679 740 741 771
710 6 648 679 680 741 742 772
711 6 649 680 681 742 743 773
712 6 650 681 682 743 744 774
713 6 651 682 683 744 745 775
714 4 652 683 745 776
715 4 653 684 746 777
716 6 654 684 685 746 747 778
717 6 655 685 686 747 748 779
718 6 656 686 687 748 749 780
719 6 657 687 688 749 750 781
720 6 658 688 689 750 751 782
721 6 659 689 690 751 752 783
722 6 660 690 691 752 753 784
723 6 661 691 692 753 754 785
724 6 662 692 693 754 755 786
725 6 663 693 694 755 756 787
726 6 664 694 695 756 757 788
727 6 665 695 696 757 758 789
728 6 666 696 697 758 759 790
729 6 667 697 698 759 760 791
730 6 668 698 699 760 761 792
731 6 669 699 700 761 762 793
732 6 670 700 701 762 763 794
733 6 671 701 702 763 764 795
734 6 672 702 703 764 765 796
735 6 673 703 704 765 766 797
736 6 674 704 705 766 767 798
737 6 675 705 706 767 768 799
738 6 676 706 707 768 769 800
739 6 677 707 708 769 770 801
740 6 678 708 709 770 771 802
741 6 679 709 710 771 772 803
742 6 680 710 711 772 773 804
743 6 681 711 712 773 774 805
744 6 682 712 713 774 775 806
745 6 683 713 714 775 776 807
746 6 684 715 716 777 778 808
747 6 685 716 717 778 779 809
748 6 686 717 718 779 780 810
749 6 687 718 719 780 781 811
750 6 688 719 720 781 782 812
751 6 689 720 721 782 783 813
752 6 690 721 722 783 784 814
753 6 691 722 723 784 785 815
754 6 692 723 724 785 786 816
755 6 693 724 725 786 787 817
756 6 694 725 726 787 788 818
757 6 695 726 727 788 789 819
758 6 696 727 728 789 790 820
759 6 697 728 729 790 791 821
760 6 698 729 730 791 792 822
761 6 699 730 731 792 793 823
762 6 700 731 732 793 794 824
763 6 701 732 733 794 795 825
764 6 702 733 734 795 796 826
765 6 703 734 735 796 797 827
766 6 704 735 736 797 798 828
767 6 705 736 737 798 799 829
768 6 706 737 738 799 800 830
769 6 707 738 739 800 801 831
770 6 708 739 740 801 802 832
771 6 709 740 741 802 803 833
772 6 710 741 742 803 804 834
773 6 711 742 743 804 805 835
774 6 712 743 744 805 806 836
775 6 713 744 745 806 807 837
776 3 714 745 807
777 4 715 746 808 838
778 6 716 746 747 808 809 839
779 6 717 747 748 809 810 840
780 6 718 748 749 810 811 841
781 6 719 749 750 811 812 842
782 6 720 750 751 812 813 843
783 6 721 751 752 813 814 844
784 6 722 752 753 814 815 845
785 6 723 753 754 815 816 846
786 6 724 754 755 816 817 847
787 6 725 755 756 817 818 848
788 6 726 756 757 818 819 849
789 6 727 757 758 819 820 850
790 6 728 758 759 820 821 851
791 6 729 759 760 821 822 852
792 6 730 760 761 822 823 853
793 6 731 761 762 823 824 854
794 6 732 762 763 824 825 855
795 6 733 763 764 825 826 856
796 6 734 764 765 826 827 857
797 6 735 765 766 827 828 858
798 6 736 766 767 828 829 859
799 6 737 767 768 829 830 860
800 6 738 768 769 830 831 861
801 6 739 769 770 831 832 862
802 6 740 770 771 832 833 863
803 6 741 771 772 833 834 864
804 6 742 772 773 834 835 865
805 6 743 773 774 835 836 866
806 6 744 774 775 836 837 867
807 5 745 775 776 837 868
808 6 746 777 778 838 839 870
809 6 747 778 779 839 840 871
810 6 748 779 780 840 841 872
811 6 749 780 781 841 842 873
812 6 750 781 782 842 843 874
813 6 751 782 783 843 844 875
814 6 752 783 784 844 845 876
815 6 753 784 785 845 846 877
816 6 754 785 786 846 847 878
817 6 755 786 787 847 848 879
818 6 756 787 788 848 849 880
819 6 757 788 789 849 850 881
820 6 758 789 790 850 851 882
821 6 759 790 791 851 852 883
822 6 760 791 792 852 853 884
823 6 761 792 793 853 854 885
824 6 762 793 794 854 855 886
825 6 763 794 795 855 856 887
826 6 764 795 796 856 857 888
827 6 765 796 797 857 858 889
828 6 766 797 798 858 859 890
829 6 767 798 799 859 860 891
830 6 768 799 800 860 861 892
831 6 769 800 801 861 862 893
832 6 770 801 802 862 863 894
833 6 771 802 803 863 864 895
834 6 772 803 804 864 865 896
835 6 773 804 805 865 866 897
836 6 774 805 806 866 867 898
837 6 775 806 807 867 868 899
838 5 777 808 869 870 901
839 6 778 808 809 870 871 902
840 6 779 809 810 871 872 903
841 6 780 810 811 872 873 904
842 6 781 811 812 873 874 905
843 6 782 812 813 874 875 906
844 6 783 813 814 875 876 907
845 6 784 814 815 876 877 908
846 6 785 815 816 877 878 909
847 6 786 816 817 878 879 910
848 6 787 817 818 879 880 911
849 6 788 818 819 880 881 912
850 6 789 819 820 881 882 913
851 6 790 820 821 882 883 914
852 6 791 821 822 883 884 915
853 6 792 822 823 884 885 916
854 6 793 823 824 885 886 917
855 6 794 824 825 886 887 918
856 6 795 825 826 887 888 919
857 6 796 826 827 888 889 920
858 6 797 827 828 889 890 921
859 6 798 828 829 890 891 922
860 6 799 829 830 891 892 923
861 6 800 830 831 892 893 924
862 6 801 831 832 893 894 925
863 6 802 832 833 894 895 926
864 6 803 833 834 895 896 927
865 6 804 834 835 896 897 928
866 6 805 835 836 897 898 929
867 6 806 836 837 898 899 930
868 4 807 837 899 931
869 4 838 900 901 932
870 6 808 838 839 901 902 933
871 6 809 839 840 902 903 934
872 6 810 840 841 903 904 935
873 6 811 841 842 904 905 936
874 6 812 842 843 905 906 937
875 6 813 843 844 906 907 938
876 6 814 844 845 907 908 939
877 6 815 845 846 908 909 940
878 6 816 846 847 909 910 941
879 6 817 847 848 910 911 942
880 6 818 848 849 911 912 943
881 6 819 849 850 912 913 944
882 6 820 850 851 913 914 945
883 6 821 851 852 914 915 946
884 6 822 852 853 915 916 947
885 6 823 853 854 916 917 948
886 6 824 854 855 917 918 949
887 6 825 855 856 918 919 950
888 6 826 856 857 919 920 951
889 6 827 857 858 920 921 952
890 6 828 858 859 921 922 953
891 6 829 859 860 922 923 954
892 6 830 860 861 923 924 955
893 6 831 861 862 924 925 956
894 6 832 862 863 925 926 957
895 6 833 863 864 926 927 958
896 6 834 864 865 927 928 959
897 6 835 865 866 928 929 960
898 6 836 866 867 929 930 961
899 6 837 867 868 930 931 962
900 3 869 932 963
901 6 838 869 870 932 933 964
902 6 839 870 871 933 934 965
903 6 840 871 872 934 935 966
904 6 841 872 873 935 936 967
905 6 842 873 874 936 937 968
906 6 843 874 875 937 938 969
907 6 844 875 876 938 939 970
908 6 845 876 877 939 940 971
909 6 846 877 878 940 941 972
910 6 847 878 879 941 942 973
911 6 848 879 880 942 943 974
912 6 849 880 881 943 944 975
913 6 850 881 882 944 945 976
914 6 851 882 883 945 946 977
915 6 852 883 884 946 947 978
916 6 853 884 885 947 948 979
917 6 854 885 886 948 949 980
918 6 855 886 887 949 950 981
919 6 856 887 888 950 951 982
920 6 857 888 889 951 952 983
921 6 858 889 890 952 953 984
922 6 859 890 891 953 954 985
923 6 860 891 892 954 955 986
924 6 861 892 893 955 956 987
925 6 862 893 894 956 957 988
926 6 863 894 895 957 958 989
927 6 864 895 896 958 959 990
928 6 865 896 897 959 960 991
929 6 866 897 898 960 961 992
930 6 867 898 899 961 962 993
931 4 868 899 962 994
932 6 869 900 901 963 964 996
933 6 870 901 902 964 965 997
934 6 871 902 903 965 966 998
935 6 872 903 904 966 967 999
936 6 873 904 905 967 968 1000
937 6 874 905 906 968 969 1001
938 6 875 906 907 969 970 1002
939 6 876 907 908 970 971 1003
940 6 877 908 909 971 972 1004
941 6 878 909 910 972 973 1005
942 6 879 910 911 973 974 1006
943 6 880 911 912 974 975 1007
944 6 881 912 913 975 976 1008
945 6 882 913 914 976 977 1009
946 6 883 914 915 977 978 1010
947 6 884 915 916 978 979 1011
948 6 885 916 917 979 980 1012
949 6 886 917 918 980 981 1013
950 6 887 918 919 981 982 1014
951 6 888 919 920 982 983 1015
952 6 889 920 921 983 984 1016
953 6 890 921 922 984 985 1017
954 6 891 922 923 985 986 1018
955 6 892 923 924 986 987 1019
956 6 893 924 925 987 988 1020
957 6 894 925 926 988 989 1021
958 6 895 926 927 989 990 1022
959 6 896 927 928 990 991 1023
960 6 897 928 929 991 992 1024
961 6 898 929 930 992 993 1025
962 6 899 930 931 993 994 1026
963 5 900 932 995 996 1027
964 6 901 932 933 996 997 1028
965 6 902 933 934 997 998 1029
966 6 903 934 935 998 999 1030
967 6 904 935 936 999 1000 1031
968 6 905 936 937 1000 1001 1032
969 6 906 937 938 1001 1002 1033
970 6 907 938 939 1002 1003 1034
971 6 908 939 940 1003 1004 1035
972 6 909 940 941 1004 1005 1036
973 6 910 941 942 1005 1006 1037
974 6 911 942 943 1006 1007 1038
975 6 912 943 944 1007 1008 1039
976 6 913 944 945 1008 1009 1040
977 6 914 945 946 1009 1010 1041
978 6 915 946 947 1010 1011 1042
979 6 916 947 948 1011 1012 1043
980 6 917 948 949 1012 1013 1044
981 6 918 949 950 1013 1014 1045
982 6 919 950 951 1014 1015 1046
983 6 920 951 952 1015 1016 1047
984 6 921 952 953 1016 1017 1048
985 6 922 953 954 1017 1018 1049
986 6 923 954 955 1018 1019 1050
987 6 924 955 956 1019 1020 1051
988 6 925 956 957 1020 1021 1052
989 6 926 957 958 1021 1022 1053
990 6 927 958 959 1022 1023 1054
991 6 928 959 960 1023 1024 1055
992 6 929 960 961 1024 1025 1056
993 6 930 961 962 1025 1026 1057
994 3 931 962 1026
995 3 963 1027 1058
996 6 932 963 964 1027 1028 1059
997 6 933 964 965 1028 1029 1060
998 6 934 965 966 1029 1030 1061
999 6 935 966 967 1030 1031 1062
1000 6 936 967 968 1031 1032 1063
1001 6 937 968 969 1032 1033 1064
1002 6 938 969 970 1033 1034 1065
1003 6 939 970 971 1034 1035 1066
1004 6 940 971 972 1035 1036 1067
1005 6 941 972 973 1036 1037 1068
1006 6 942 973 974 1037 1038 1069
1007 6 943 974 975 1038 1039 1070
1008 6 944 975 976 1039 1040 1071
1009 6 945 976 977 1040 1041 1072
1010 6 946 977 978 1041 1042 1073
1011 6 947 978 979 1042 1043 1074
1012 6 948 979 980 1043 1044 1075
1013 6 949 980 981 1044 1045 1076
1014 6 950 981 982 1045 1046 1077
1015 6 951 982 983 1046 1047 1078
1016 6 952 983 984 1047 1048 1079
1017 6 953 984 985 1048 1049 1080
1018 6 954 985 986 1049 1050 1081
1019 6 955 986 987 1050 1051 1082
1020 6 956 987 988 1051 1052 1083
1021 6 957 988 989 1052 1053 1084
1022 6 958 989 990 1053 1054 1085
1023 6 959 990 991 1054 1055 1086
1024 6 960 991 992 1055 1056 1087
1025 6 961 992 993 1056 1057 1088
1026 5 962 993 994 1057 1089
1027 6 963 995 996 1058 1059 1091
1028 6 964 996 997 1059 1060 1092
1029 6 965 997 998 1060 1061 1093
1030 6 966 998 999 1061 1062 1094
1031 6 967 999 1000 1062 1063 1095
1032 6 968 1000 1001 1063 1064 1096
1033 6 969 1001 1002 1064 1065 1097
1034 6 970 1002 1003 1065 1066 1098
1035 6 971 1003 1004 1066 1067 1099
1036 6 972 1004 1005 1067 1068 1100
1037 6 973 1005 1006 1068 1069 1101
1038 6 974 1006 1007 1069 1070 1102
1039 6 975 1007 1008 1070 1071 1103
1040 6 976 1008 1009 1071 1072 1104
1041 6 977 1009 1010 1072 1073 1105
1042 6 978 1010 1011 1073 1074 1106
1043 6 979 1011 1012 1074 1075 1107
1044 6 980 1012 1013 1075 1076 1108
1045 6 981 1013 1014 1076 1077 1109
1046 6 982 1014 1015 1077 1078 1110
1047 6 983 1015 1016 1078 1079 1111
1048 6 984 1016 1017 1079 1080 1112
1049 6 985 1017 1018 1080 1081 1113
1050 6 986 1018 1019 1081 1082 1114
1051 6 987 1019 1020 1082 1083 1115
1052 6 988 1020 1021 1083 1084 1116
1053 6 989 1021 1022 1084 1085 1117
1054 6 990 1022 1023 1085 1086 1118
1055 6 991 1023 1024 1086 1087 1119
1056 6 992 1024 1025 1087 1088 1120
1057 6 993 1025 1026 1088 1089 1121
1058 5 995 1027 1090 1091 1122
1059 6 996 1027 1028 1091 1092 1123
1060 6 997 1028 1029 1092 1093 1124
1061 6 998 1029 1030 1093 1094 1125
1062 6 999 1030 1031 1094 1095 1126
1063 6 1000 1031 1032 1095 1096 1127
1064 6 1001 1032 1033 1096 1097 1128
1065 6 1002 1033 1034 1097 1098 1129
1066 6 1003 1034 1035 1098 1099 1130
1067 6 1004 1035 1036 1099 1100 1131
1068 6 1005 1036 1037 1100 1101 1132
1069 6 1006 1037 1038 1101 1102 1133
1070 6 1007 1038 1039 1102 1103 1134
1071 6 1008 1039 1040 1103 1104 1135
1072 6 1009 1040 1041 1104 1105 1136
1073 6 1010 1041 1042 1105 1106 1137
1074 6 1011 1042 1043 1106 1107 1138
1075 6 1012 1043 1044 1107 1108 1139
1076 6 1013 1044 1045 1108 1109 1140
1077 6 1014 1045 1046 1109 1110 1141
1078 6 1015 1046 1047 1110 1111 1142
1079 6 1016 1047 1048 1111 1112 1143
1080 6 1017 1048 1049 1112 1113 1144
1081 6 1018 1049 1050 1113 1114 1145
1082 6 1019 1050 1051 1114 1115 1146
1083 6 1020 1051 1052 1115 1116 1147
1084 6 1021 1052 1053 1116 1117 1148
1085 6 1022 1053 1054 1117 1118 1149
1086 6 1023 1054 1055 1118 1119 1150
1087 6 1024 1055 1056 1119 1120 1151
1088 6 1025 1056 1057 1120 1121 1152
1089 4 1026 1057 1121 1153
1090 3 1058 1122 1154
1091 6 1027 1058 1059 1122 1123 1155
1092 6 1028 1059 1060 1123 1124 1156
1093 6 1029 1060 1061 1124 1125 1157
1094 6 1030 1061 1062 1125 1126 1158
1095 6 1031 1062 1063 1126 1127 1159
1096 6 1032 1063 1064 1127 1128 1160
1097 6 1033 1064 1065 1128 1129 1161
1098 6 1034 1065 1066 1129 1130 1162
1099 6 1035 1066 1067 1130 1131 1163
1100 6 1036 1067 1068 1131 1132 1164
1101 6 1037 1068 1069 1132 1133 1165
1102 6 1038 1069 1070 1133 1134 1166
1103 6 1039 1070 1071 1134 1135 1167
1104 6 1040 1071 1072 1135 1136 1168
1105 6 1041 1072 1073 1136 1137 1169
1106 6 1042 1073 1074 1137 1138 1170
1107 6 1043 1074 1075 1138 1139 1171
1108 6 1044 1075 1076 1139 1140 1172
1109 6 1045 1076 1077 1140 1141 1173
1110 6 1046 1077 1078 1141 1142 1174
1111 6 1047 1078 1079 1142 1143 1175
1112 6 1048 1079 1080 1143 1144 1176
1113 6 1049 1080 1081 1144 1145 1177
1114 6 1050 1081 1082 1145 1146 1178
1115 6 1051 1082 1083 1146 1147 1179
1116 6 1052 1083 1084 1147 1148 1180
1117 6 1053 1084 1085 1148 1149 1181
1118 6 1054 1085 1086 1149 1150 1182
1119 6 1055 1086 1087 1150 1151 1183
1120 6 1056 1087 1088 1151 1152 1184
1121 6 1057 1088 1089 1152 1153 1185
1122 6 1058 1090 1091 1154 1155 1187
1123 6 1059 1091 1092 1155 1156 1188
1124 6 1060 1092 1093 1156 1157 1189
1125 6 1061 1093 1094 1157 1158 1190
1126 6 1062 1094 1095 1158 1159 1191
1127 6 1063 1095 1096 1159 1160 1192
1128 6 1064 1096 1097 1160 1161 1193
1129 6 1065 1097 1098 1161 1162 1194
1130 6 1066 1098 1099 1162 1163 1195
1131 6 1067 1099 1100 1163 1164 1196
1132 6 1068 1100 1101 1164 1165 1197
1133 6 1069 1101 1102 1165 1166 1198
1134 6 1070 1102 1103 1166 1167 1199
1135 6 1071 1103 1104 1167 1168 1200
1136 6 1072 1104 1105 1168 1169 1201
1137 6 1073 1105 1106 1169 1170 1202
1138 6 1074 1106 1107 1170 1171 1203
1139 6 1075 1107 1108 1171 1172 1204
1140 6 1076 1108 1109 1172 1173 1205
1141 6 1077 1109 1110 1173 1174 1206
1142 6 1078 1110 1111 1174 1175 1207
1143 6 1079 1111 1112 1175 1176 1208
1144 6 1080 1112 1113 1176 1177 1209
1145 6 1081 1113 1114 1177 1178 1210
1146 6 1082 1114 1115 1178 1179 1211
1147 6 1083 1115 1116 1179 1180 1212
1148 6 1084 1116 1117 1180 1181 1213
1149 6 1085 1117 1118 1181 1182 1214
1150 6 1086 1118 1119 1182 1183 1215
1151 6 1087 1119 1120 1183 1184 1216
1152 6 1088 1120 1121 1184 1185 1217
1153 4 1089 1121 1185 1218
1154 5 1090 1122 1186 1187 1219
1155 6 1091 1122 1123 1187 1188 1220
1156 6 1092 1123 1124 1188 1189 1221
1157 6 1093 1124 1125 1189 1190 1222
1158 6 1094 1125 1126 1190 1191 1223
1159 6 1095 1126 1127 1191 1192 1224
1160 6 1096 1127 1128 1192 1193 1225
1161 6 1097 1128 1129 1193 1194 1226
1162 6 1098 1129 1130 1194 1195 1227
1163 6 1099 1130 1131 1195 1196 1228
1164 6 1100 1131 1132 1196 1197 1229
1165 6 1101 1132 1133 1197 1198 1230
1166 6 1102 1133 1134 1198 1199 1231
1167 6 1103 1134 1135 1199 1200 1232
1168 6 1104 1135 1136 1200 1201 1233
1169 6 1105 1136 1137 1201 1202 1234
1170 6 1106 1137 1138 1202 1203 1235
1171 6 1107 1138 1139 1203 1204 1236
1172 6 1108 1139 1140 1204 1205 1237
1173 6 1109 1140 1141 1205 1206 1238
1174 6 1110 1141 1142 1206 1207 1239
1175 6 1111 1142 1143 1207 1208 1240
1176 6 1112 1143 1144 1208 1209 1241
1177 6 1113 1144 1145 1209 1210 1242
1178 6 1114 1145 1146 1210 1211 1243
1179 6 1115 1146 1147 1211 1212 1244
1180 6 1116 1147 1148 1212 1213 1245
1181 6 1117 1148 1149 1213 1214 1246
1182 6 1118 1149 1150 1214 1215 1247
1183 6 1119 1150 1151 1215 1216 1248
1184 6 1120 1151 1152 1216 1217 1249
1185 6 1121 1152 1153 1217 1218 1250
1186 3 1154 1219 1251
1187 6 1122 1154 1155 1219 1220 1252
1188 6 1123 1155 1156 1220 1221 1253
1189 6 1124 1156 1157 1221 1222 1254
1190 6 1125 1157 1158 1222 1223 1255
1191 6 1126 1158 1159 1223 1224 1256
1192 6 1127 1159 1160 1224 1225 1257
1193 6 1128 1160 1161 1225 1226 1258
1194 6 1129 1161 1162 1226 1227 1259
1195 6 1130 1162 1163 1227 1228 1260
1196 6 1131 1163 1164 1228 1229 1261
1197 6 1132 1164 1165 1229 1230 1262
1198 6 1133 1165 1166 1230 1231 1263
1199 6 1134 1166 1167 1231 1232 1264
1200 6 1135 1167 1168 1232 1233 1265
1201 6 1136 1168 1169 1233 1234 1266
1202 6 1137 1169 1170 1234 1235 1267
1203 6 1138 1170 1171 1235 1236 1268
1204 6 1139 1171 1172 1236 1237 1269
1205 6 1140 1172 1173 1237 1238 1270
1206 6 1141 1173 1174 1238 1239 1271
1207 6 1142 1174 1175 1239 1240 1272
1208 6 1143 1175 1176 1240 1241 1273
1209 6 1144 1176 1177 1241 1242 1274
1210 6 1145 1177 1178 1242 1243 1275
1211 6 1146 1178 1179 1243 1244 1276
1212 6 1147 1179 1180 1244 1245 1277
1213 6 1148 1180 1181 1245 1246 1278
1214 6 1149 1181 1182 1246 1247 1279
1215 6 1150 1182 1183 1247 1248 1280
1216 6 1151 1183 1184 1248 1249 1281
1217 6 1152 1184 1185 1249 1250 1282
1218 3 1153 1185 1250
1219 6 1154 1186 1187 1251 1252 1284
1220 6 1155 1187 1188 1252 1253 1285
1221 6 1156 1188 1189 1253 1254 1286
1222 6 1157 1189 1190 1254 1255 1287
1223 6 1158 1190 1191 1255 1256 1288
1224 6 1159 1191 1192 1256 1257 1289
1225 6 1160 1192 1193 1257 1258 1290
1226 6 1161 1193 1194 1258 1259 1291
1227 6 1162 1194 1195 1259 1260 1292
1228 6 1163 1195 1196 1260 1261 1293
1229 6 1164 1196 1197 1261 1262 1294
1230 6 1165 1197 1198 1262 1263 1295
1231 6 1166 1198 1199 1263 1264 1296
1232 6 1167 1199 1200 1264 1265 1297
1233 6 1168 1200 1201 1265 1266 1298
1234 6 1169 1201 1202 1266 1267 1299
1235 6 1170 1202 1203 1267 1268 1300
1236 6 1171 1203 1204 1268 1269 1301
1237 6 1172 1204 1205 1269 1270 1302
1238 6 1173 1205 1206 1270 1271 1303
1239 6 1174 1206 1207 1271 1272 1304
1240 6 1175 1207 1208 1272 1273 1305
1241 6 1176 1208 1209 1273 1274 1306
1242 6 1177 1209 1210 1274 1275 1307
1243 6 1178 1210 1211 1275 1276 1308
1244 6 1179 1211 1212 1276 1277 1309
1245 6 1180 1212 1213 1277 1278 1310
1246 6 1181 1213 1214 1278 1279 1311
1247 6 1182 1214 1215 1279 1280 1312
1248 6 1183 1215 1216 1280 1281 1313
1249 6 1184 1216 1217 1281 1282 1314
1250 5 1185 1217 1218 1282 1315
1251 5 1186 1219 1283 1284 1316
1252 6 1187 1219 1220 1284 1285 1317
1253 6 1188 1220 1221 1285 1286 1318
1254 6 1189 1221 1222 1286 1287 1319
1255 6 1190 1222 1223 1287 1288 1320
1256 6 1191 1223 1224 1288 1289 1321
1257 6 1192 1224 1225 1289 1290 1322
1258 6 1193 1225 1226 1290 1291 1323
1259 6 1194 1226 1227 1291 1292 1324
1260 6 1195 1227 1228 1292 1293 1325
1261 6 1196 1228 1229 1293 1294 1326
1262 6 1197 1229 1230 1294 1295 1327
1263 6 1198 1230 1231 1295 1296 1328
1264 6 1199 1231 1232 1296 1297 1329
1265 6 1200 1232 1233 1297 1298 1330
1266 6 1201 1233 1234 1298 1299 1331
1267 6 1202 1234 1235 1299 1300 1332
1268 6 1203 1235 1236 1300 1301 1333
1269 6 1204 1236 1237 1301 1302 1334
1270 6 1205 1237 1238 1302 1303 1335
1271 6 1206 1238 1239 1303 1304 1336
1272 6 1207 1239 1240 1304 1305 1337
1273 6 1208 1240 1241 1305 1306 1338
1274 6 1209 1241 1242 1306 1307 1339
1275 6 1210 1242 1243 1307 1308 1340
1276 6 1211 1243 1244 1308 1309 1341
1277 6 1212 1244 1245 1309 1310 1342
1278 6 1213 1245 1246 1310 1311 1343
1279 6 1214 1246 1247 1311 1312 1344
1280 6 1215 1247 1248 1312 1313 1345
1281 6 1216 1248 1249 1313 1314 1346
1282 6 1217 1249 1250 1314 1315 1347
1283 3 1251 1316 1348
1284 6 1219 1251 1252 1316 1317 1349
1285 6 1220 1252 1253 1317 1318 1350
1286 6 1221 1253 1254 1318 1319 1351
1287 6 1222 1254 1255 1319 1320 1352
1288 6 1223 1255 1256 1320 1321 1353
1289 6 1224 1256 1257 1321 1322 1354
1290 6 1225 1257 1258 1322 1323 1355
1291 6 1226 1258 1259 1323 1324 1356
1292 6 1227 1259 1260 1324 1325 1357
1293 6 1228 1260 1261 1325 1326 1358
1294 6 1229 1261 1262 1326 1327 1359
1295 6 1230 1262 1263 1327 1328 1360
1296 6 1231 1263 1264 1328 1329 1361
1297 6 1232 1264 1265 1329 1330 1362
1298 6 1233 1265 1266 1330 1331 1363
1299 6 1234 1266 1267 1331 1332 1364
1300 6 1235 1267 1268 1332 1333 1365
1301 6 1236 1268 1269 1333 1334 1366
1302 6 1237 1269 1270 1334 1335 1367
1303 6 1238 1270 1271 1335 1336 1368
1304 6 1239 1271 1272 1336 1337 1369
1305 6 1240 1272 1273 1337 1338 1370
1306 6 1241 1273 1274 1338 1339 1371
1307 6 1242 1274 1275 1339 1340 1372
1308 6 1243 1275 1276 1340 1341 1373
1309 6 1244 1276 1277 1341 1342 1374
1310 6 1245 1277 1278 1342 1343 1375
1311 6 1246 1278 1279 1343 1344 1376
1312 6 1247 1279 1280 1344 1345 1377
1313 6 1248 1280 1281 1345 1346 1378
1314 6 1249 1281 1282 1346 1347 1379
1315 4 1250 1282 1347 1380
1316 6 1251 1283 1284 1348 1349 1382
1317 6 1252 1284 1285 1349 1350 1383
1318 6 1253 1285 1286 1350 1351 1384
1319 6 1254 1286 1287 1351 1352 1385
1320 6 1255 1287 1288 1352 1353 1386
1321 6 1256 1288 1289 1353 1354 1387
1322 6 1257 1289 1290 1354 1355 1388
1323 6 1258 1290 1291 1355 1356 1389
1324 6 1259 1291 1292 1356 1357 1390
1325 6 1260 1292 1293 1357 1358 1391
1326 6 1261 1293 1294 1358 1359 1392
1327 6 1262 1294 1295 1359 1360 1393
1328 6 1263 1295 1296 1360 1361 1394
1329 6 1264 1296 1297 1361 1362 1395
1330 6 1265 1297 1298 1362 1363 1396
1331 6 1266 1298 1299 1363 1364 1397
1332 6 1267 1299 1300 1364 1365 1398
1333 6 1268 1300 1301 1365 1366 1399
1334 6 1269 1301 1302 1366 1367 1400
1335 6 1270 1302 1303 1367 1368 1401
1336 6 1271 1303 1304 1368 1369 1402
1337 6 1272 1304 1305 1369 1370 1403
1338 6 1273 1305 1306 1370 1371 1404
1339 6 1274 1306 1307 1371 1372 1405
1340 6 1275 1307 1308 1372 1373 1406
1341 6 1276 1308 1309 1373 1374 1407
1342 6 1277 1309 1310 1374 1375 1408
1343 6 1278 1310 1311 1375 1376 1409
1344 6 1279 1311 1312 1376 1377 1410
1345 6 1280 1312 1313 1377 1378 1411
1346 6 1281 1313 1314 1378 1379 1412
1347 6 1282 1314 1315 1379 1380 1413
1348 5 1283 1316 1381 1382 1414
1349 6 1284 1316 1317 1382 1383 1415
1350 6 1285 1317 1318 1383 1384 1416
1351 6 1286 1318 1319 1384 1385 1417
1352 6 1287 1319 1320 1385 1386 1418
1353 6 1288 1320 1321 1386 1387 1419
1354 6 1289 1321 1322 1387 1388 1420
1355 6 1290 1322 1323 1388 1389 1421
1356 6 1291 1323 1324 1389 1390 1422
1357 6 1292 1324 1325 1390 1391 1423
1358 6 1293 1325 1326 1391 1392 1424
1359 6 1294 1326 1327 1392 1393 1425
1360 6 1295 1327 1328 1393 1394 1426
1361 6 1296 1328 1329 1394 1395 1427
1362 6 1297 1329 1330 1395 1396 1428
1363 6 1298 1330 1331 1396 1397 1429
1364 6 1299 1331 1332 1397 1398 1430
1365 6 1300 1332 1333 1398 1399 1431
1366 6 1301 1333 1334 1399 1400 1432
1367 6 1302 1334 1335 1400 1401 1433
1368 6 1303 1335 1336 1401 1402 1434
1369 6 1304 1336 1337 1402 1403 1435
1370 6 1305 1337 1338 1403 1404 1436
1371 6 1306 1338 1339 1404 1405 1437
1372 6 1307 1339 1340 1405 1406 1438
1373 6 1308 1340 1341 1406 1407 1439
1374 6 1309 1341 1342 1407 1408 1440
1375 6 1310 1342 1343 1408 1409 1441
1376 6 1311 1343 1344 1409 1410 1442
1377 6 1312 1344 1345 1410 1411 1443
1378 6 1313 1345 1346 1411 1412 1444
1379 6 1314 1346 1347 1412 1413 1445
1380 4 1315 1347 1413 1446
1381 3 1348 1414 1447
1382 6 1316 1348 1349 1414 1415 1448
1383 6 1317 1349 1350 1415 1416 1449
1384 6 1318 1350 1351 1416 1417 1450
1385 6 1319 1351 1352 1417 1418 1451
1386 6 1320 1352 1353 1418 1419 1452
1387 6 1321 1353 1354 1419 1420 1453
1388 6 1322 1354 1355 1420 1421 1454
1389 6 1323 1355 1356 1421 1422 1455
1390 6 1324 1356 1357 1422 1423 1456
1391 6 1325 1357 1358 1423 1424 1457
1392 6 1326 1358 1359 1424 1425 1458
1393 6 1327 1359 1360 1425 1426 1459
1394 6 1328 1360 1361 1426 1427 1460
1395 6 1329 1361 1362 1427 1428 1461
1396 6 1330 1362 1363 1428 1429 1462
1397 6 1331 1363 1364 1429 1430 1463
1398 6 1332 1364 1365 1430 1431 1464
1399 6 1333 1365 1366 1431 1432 1465
1400 6 1334 1366 1367 1432 1433 1466
1401 6 1335 1367 1368 1433 1434 1467
1402 6 1336 1368 1369 1434 1435 1468
1403 6 1337 1369 1370 1435 1436 1469
1404 6 1338 1370 1371 1436 1437 1470
1405 6 1339 1371 1372 1437 1438 1471
1406 6 1340 1372 1373 1438 1439 1472
1407 6 1341 1373 1374 1439 1440 1473
1408 6 1342 1374 1375 1440 1441 1474
1409 6 1343 1375 1376 1441 1442 1475
1410 6 1344 1376 1377 1442 1443 1476
1411 6 1345 1377 1378 1443 1444 1477
1412 6 1346 1378 1379 1444 1445 1478
1413 6 1347 1379 1380 1445 1446 1479
1414 6 1348 1381 1382 1447 1448 1481
1415 6 1349 1382 1383 1448 1449 1482
1416 6 1350 1383 1384 1449 1450 1483
1417 6 1351 1384 1385 1450 1451 1484
1418 6 1352 1385 1386 1451 1452 1485
1419 6 1353 1386 1387 1452 1453 1486
1420 6 1354 1387 1388 1453 1454 1487
1421 6 1355 1388 1389 1454 1455 1488
1422 6 1356 1389 1390 1455 1456 1489
1423 6 1357 1390 1391 1456 1457 1490
1424 6 1358 1391 1392 1457 1458 1491
1425 6 1359 1392 1393 1458 1459 1492
1426 6 1360 1393 1394 1459 1460 1493
1427 6 1361 1394 1395 1460 1461 1494
1428 6 1362 1395 1396 1461 1462 1495
1429 6 1363 1396 1397 1462 1463 1496
1430 6 1364 1397 1398 1463 1464 1497
1431 6 1365 1398 1399 1464 1465 1498
1432 6 1366 1399 1400 1465 1466 1499
1433 6 1367 1400 1401 1466 1467 1500
1434 6 1368 1401 1402 1467 1468 1501
1435 6 1369 1402 1403 1468 1469 1502
1436 6 1370 1403 1404 1469 1470 1503
1437 6 1371 1404 1405 1470 1471 1504
1438 6 1372 1405 1406 1471 1472 1505
1439 6 1373 1406 1407 1472 1473 1506
1440 6 1374 1407 1408 1473 1474 1507
1441 6 1375 1408 1409 1474 1475 1508
1442 6 1376 1409 1410 1475 1476 1509
1443 6 1377 1410 1411 1476 1477 1510
1444 6 1378 1411 1412 1477 1478 1511
1445 6 1379 1412 1413 1478 1479 1512
1446 4 1380 1413 1479 1513
1447 5 1381 1414 1480 1481 1514
1448 6 1382 1414 1415 1481 1482 1515
1449 6 1383 1415 1416 1482 1483 1516
1450 6 1384 1416 1417 1483 1484 1517
1451 6 1385 1417 1418 1484 1485 1518
1452 6 1386 1418 1419 1485 1486 1519
1453 6 1387 1419 1420 1486 1487 1520
1454 6 1388 1420 1421 1487 1488 1521
1455 6 1389 1421 1422 1488 1489 1522
1456 6 1390 1422 1423 1489 1490 1523
1457 6 1391 1423 1424 1490 1491 1524
1458 6 1392 1424 1425 1491 1492 1525
1459 6 1393 1425 1426 1492 1493 1526
1460 6 1394 1426 1427 1493 1494 1527
1461 6 1395 1427 1428 1494 1495 1528
1462 6 1396 1428 1429 1495 1496 1529
1463 6 1397 1429 1430 1496 1497 1530
1464 6 1398 1430 1431 1497 1498 1531
1465 6 1399 1431 1432 1498 1499 1532
1466 6 1400 1432 1433 1499 1500 1533
1467 6 1401 1433 1434 1500 1501 1534
1468 6 1402 1434 1435 1501 1502 1535
1469 6 1403 1435 1436 1502 1503 1536
1470 6 1404 1436 1437 1503 1504 1537
1471 6 1405 1437 1438 1504 1505 1538
1472 6 1406 1438 1439 1505 1506 1539
1473 6 1407 1439 1440 1506 1507 1540
1474 6 1408 1440 1441 1507 1508 1541
1475 6 1409 1441 1442 1508 1509 1542
1476 6 1410 1442 1443 1509 1510 1543
1477 6 1411 1443 1444 1510 1511 1544
1478 6 1412 1444 1445 1511 1512 1545
1479 6 1413 1445 1446 1512 1513 1546
1480 3 1447 1514 1547
1481 6 1414 1447 1448 1514 1515 1548
1482 6 1415 1448 1449 1515 1516 1549
1483 6 1416 1449 1450 1516 1517 1550
1484 6 1417 1450 1451 1517 1518 1551
1485 6 1418 1451 1452 1518 1519 1552
1486 6 1419 1452 1453 1519 1520 1553
1487 6 1420 1453 1454 1520 1521 1554
1488 6 1421 1454 1455 1521 1522 1555
1489 6 1422 1455 1456 1522 1523 1556
1490 6 1423 1456 1457 1523 1524 1557
1491 6 1424 1457 1458 1524 1525 1558
1492 6 1425 1458 1459 1525 1526 1559
1493 6 1426 1459 1460 1526 1527 1560
1494 6 1427 1460 1461 1527 1528 1561
1495 6 1428 1461 1462 1528 1529 1562
1496 6 1429 1462 1463 1529 1530 1563
1497 6 1430 1463 1464 1530 1531 1564
1498 6 1431 1464 1465 1531 1532 1565
1499 6 1432 1465 1466 1532 1533 1566
1500 6 1433 1466 1467 1533 1534 1567
1501 6 1434 1467 1468 1534 1535 1568
1502 6 1435 1468 1469 1535 1536 1569
1503 6 1436 1469 1470 1536 1537 1570
1504 6 1437 1470 1471 1537 1538 1571
1505 6 1438 1471 1472 1538 1539 1572
1506 6 1439 1472 1473 1539 1540 1573
1507 6 1440 1473 1474 1540 1541 1574
1508 6 1441 1474 1475 1541 1542 1575
1509 6 1442 1475 1476 1542 1543 1576
1510 6 1443 1476 1477 1543 1544 1577
1511 6 1444 1477 1478 1544 1545 1578
1512 6 1445 1478 1479 1545 1546 1579
1513 3 1446 1479 1546
1514 6 1447 1480 1481 1547 1548 1580
1515 6 1448 1481 1482 1548 1549 1581
1516 6 1449 1482 1483 1549 1550 1582
1517 6 1450 1483 1484 1550 1551 1583
1518 6 1451 1484 1485 1551 1552 1584
1519 6 1452 1485 1486 1552 1553 1585
1520 6 1453 1486 1487 1553 1554 1586
1521 6 1454 1487 1488 1554 1555 1587
1522 6 1455 1488 1489 1555 1556 1588
1523 6 1456 1489 1490 1556 1557 1589
1524 6 1457 1490 1491 1557 1558 1590
1525 6 1458 1491 1492 1558 1559 1591
1526 6 1459 1492 1493 1559 1560 1592
1527 6 1460 1493 1494 1560 1561 1593
1528 6 1461 1494 1495 1561 1562 1594
1529 6 1462 1495 1496 1562 1563 1595
1530 6 1463 1496 1497 1563 1564 1596
1531 6 1464 1497 1498 1564 1565 1597
1532 6 1465 1498 1499 1565 1566 1598
1533 6 1466 1499 1500 1566 1567 1599
1534 6 1467 1500 1501 1567 1568 1600
1535 6 1468 1501 1502 1568 1569 1601
1536 6 1469 1502 1503 1569 1570 1602
1537 6 1470 1503 1504 1570 1571 1603
1538 6 1471 1504 1505 1571 1572 1604
1539 6 1472 1505 1506 1572 1573 1605
1540 6 1473 1506 1507 1573 1574 1606
1541 6 1474 1507 1508 1574 1575 1607
1542 6 1475 1508 1509 1575 1576 1608
1543 6 1476 1509 1510 1576 1577 1609
1544 6 1477 1510 1511 1577 1578 1610
1545 6 1478 1511 1512 1578 1579 1611
1546 5 1479 1512 1513 1579 1612
1547 4 1480 1514 1580 1613
1548 6 1481 1514 1515 1580 1581 1614
1549 6 1482 1515 1516 1581 1582 1615
1550 6 1483 1516 1517 1582 1583 1616
1551 6 1484 1517 1518 1583 1584 1617
1552 6 1485 1518 1519 1584 1585 1618
1553 6 1486 1519 1520 1585 1586 1619
1554 6 1487 1520 1521 1586 1587 1620
1555 6 1488 1521 1522 1587 1588 1621
1556 6 1489 1522 1523 1588 1589 1622
1557 6 1490 1523 1524 1589 1590 1623
1558 6 1491 1524 1525 1590 1591 1624
1559 6 1492 1525 1526 1591 1592 1625
1560 6 1493 1526 1527 1592 1593 1626
1561 6 1494 1527 1528 1593 1594 1627
1562 6 1495 1528 1529 1594 1595 1628
1563 6 1496 1529 1530 1595 1596 1629
1564 6 1497 1530 1531 1596 1597 1630
1565 6 1498 1531 1532 1597 1598 1631
1566 6 1499 1532 1533 1598 1599 1632
1567 6 1500 1533 1534 1599 1600 1633
1568 6 1501 1534 1535 1600 1601 1634
1569 6 1502 1535 1536 1601 1602 1635
1570 6 1503 1536 1537 1602 1603 1636
1571 6 1504 1537 1538 1603 1604 1637
1572 6 1505 1538 1539 1604 1605 1638
1573 6 1506 1539 1540 1605 1606 1639
1574 6 1507 1540 1541 1606 1607 1640
1575 6 1508 1541 1542 1607 1608 1641
1576 6 1509 1542 1543 1608 1609 1642
1577 6 1510 1543 1544 1609 1610 1643
1578 6 1511 1544 1545 1610 1611 1644
1579 6 1512 1545 1546 1611 1612 1645
1580 6 1514 1547 1548 1613 1614 1646
1581 6 1515 1548 1549 1614 1615 1647
1582 6 1516 1549 1550 1615 1616 1648
1583 6 1517 1550 1551 1616 1617 1649
1584 6 1518 1551 1552 1617 1618 1650
1585 6 1519 1552 1553 1618 1619 1651
1586 6 1520 1553 1554 1619 1620 1652
1587 6 1521 1554 1555 1620 1621 1653
1588 6 1522 1555 1556 1621 1622 1654
1589 6 1523 1556 1557 1622 1623 1655
1590 6 1524 1557 1558 1623 1624 1656
1591 6 1525 1558 1559 1624 1625 1657
1592 6 1526 1559 1560 1625 1626 1658
1593 6 1527 1560 1561 1626 1627 1659
1594 6 1528 1561 1562 1627 1628 1660
1595 6 1529 1562 1563 1628 1629 1661
1596 6 1530 1563 1564 1629 1630 1662
1597 6 1531 1564 1565 1630 1631 1663
1598 6 1532 1565 1566 1631 1632 1664
1599 6 1533 1566 1567 1632 1633 1665
1600 6 1534 1567 1568 1633 1634 1666
1601 6 1535 1568 1569 1634 1635 1667
1602 6 1536 1569 1570 1635 1636 1668
1603 6 1537 1570 1571 1636 1637 1669
1604 6 1538 1571 1572 1637 1638 1670
1605 6 1539 1572 1573 1638 1639 1671
1606 6 1540 1573 1574 1639 1640 1672
1607 6 1541 1574 1575 1640 1641 1673
1608 6 1542 1575 1576 1641 1642 1674
1609 6 1543 1576 1577 1642 1643 1675
1610 6 1544 1577 1578 1643 1644 1676
1611 6 1545 1578 1579 1644 1645 1677
1612 4 1546 1579 1645 1678
1613 4 1547 1580 1646 1679
1614 6 1548 1580 1581 1646 1647 1680
1615 6 1549 1581 1582 1647 1648 1681
1616 6 1550 1582 1583 1648 1649 1682
1617 6 1551 1583 1584 1649 1650 1683
1618 6 1552 1584 1585 1650 1651 1684
1619 6 1553 1585 1586 1651 1652 1685
1620 6 1554 1586 1587 1652 1653 1686
1621 6 1555 1587 1588 1653 1654 1687
1622 6 1556 1588 1589 1654 1655 1688
1623 6 1557 1589 1590 1655 1656 1689
1624 6 1558 1590 1591 1656 1657 1690
1625 6 1559 1591 1592 1657 1658 1691
1626 6 1560 1592 1593 1658 1659 1692
1627 6 1561 1593 1594 1659 1660 1693
1628 6 1562 1594 1595 1660 1661 1694
1629 6 1563 1595 1596 1661 1662 1695
1630 6 1564 1596 1597 1662 1663 1696
1631 6 1565 1597 1598 1663 1664 1697
1632 6 1566 1598 1599 1664 1665 1698
1633 6 1567 1599 1600 1665 1666 1699
1634 6 1568 1600 1601 1666 1667 1700
1635 6 1569 1601 1602 1667 1668 1701
1636 6 1570 1602 1603 1668 1669 1702
1637 6 1571 1603 1604 1669 1670 1703
1638 6 1572 1604 1605 1670 1671 1704
1639 6 1573 1605 1606 1671 1672 1705
1640 6 1574 1606 1607 1672 1673 1706
1641 6 1575 1607 1608 1673 1674 1707
1642 6 1576 1608 1609 1674 1675 1708
1643 6 1577 1609 1610 1675 1676 1709
1644 6 1578 1610 1611 1676 1677 1710
1645 6 1579 1611 1612 1677 1678 1711
1646 6 1580 1613 1614 1679 1680 1712
1647 6 1581 1614 1615 1680 1681 1713
1648 6 1582 1615 1616 1681 1682 1714
1649 6 1583 1616 1617 1682 1683 1715
1650 6 1584 1617 1618 1683 1684 1716
1651 6 1585 1618 1619 1684 1685 1717
1652 6 1586 1619 1620 1685 1686 1718
1653 6 1587 1620 1621 1686 1687 1719
1654 6 1588 1621 1622 1687 1688 1720
1655 6 1589 1622 1623 1688 1689 1721
1656 6 1590 1623 1624 1689 1690 1722
1657 6 1591 1624 1625 1690 1691 1723
1658 6 1592 1625 1626 1691 1692 1724
1659 6 1593 1626 1627 1692 1693 1725
1660 6 1594 1627 1628 1693 1694 1726
1661 6 1595 1628 1629 1694 1695 1727
1662 6 1596 1629 1630 1695 1696 1728
1663 6 1597 1630 1631 1696 1697 1729
1664 6 1598 1631 1632 1697 1698 1730
1665 6 1599 1632 1633 1698 1699 1731
1666 6 1600 1633 1634 1699 1700 1732
1667 6 1601 1634 1635 1700 1701 1733
1668 6 1602 1635 1636 1701 1702 1734
1669 6 1603 1636 1637 1702 1703 1735
1670 6 1604 1637 1638 1703 1704 1736
1671 6 1605 1638 1639 1704 1705 1737
1672 6 1606 1639 1640 1705 1706 1738
1673 6 1607 1640 1641 1706 1707 1739
1674 6 1608 1641 1642 1707 1708 1740
1675 6 1609 1642 1643 1708 1709 1741
1676 6 1610 1643 1644 1709 1710 1742
1677 6 1611 1644 1645 1710 1711 1743
1678 4 1612 1645 1711 1744
1679 4 1613 1646 1712 1745
1680 6 1614 1646 1647 1712 1713 1746
1681 6 1615 1647 1648 1713 1714 1747
1682 6 1616 1648 1649 1714 1715 1748
1683 6 1617 1649 1650 1715 1716 1749
1684 6 1618 1650 1651 1716 1717 1750
1685 6 1619 1651 1652 1717 1718 1751
1686 6 1620 1652 1653 1718 1719 1752
1687 6 1621 1653 1654 1719 1720 1753
1688 6 1622 1654 1655 1720 1721 1754
1689 6 1623 1655 1656 1721 1722 1755
1690 6 1624 1656 1657 1722 1723 1756
1691 6 1625 1657 1658 1723 1724 1757
1692 6 1626 1658 1659 1724 1725 1758
1693 6 1627 1659 1660 1725 1726 1759
1694 6 1628 1660 1661 1726 1727 1760
1695 6 1629 1661 1662 1727 1728 1761
1696 6 1630 1662 1663 1728 1729 1762
1697 6 1631 1663 1664 1729 1730 1763
1698 6 1632 1664 1665 1730 1731 1764
1699 6 1633 1665 1666 1731 1732 1765
1700 6 1634 1666 1667 1732 1733 1766
1701 6 1635 1667 1668 1733 1734 1767
1702 6 1636 1668 1669 1734 1735 1768
1703 6 1637 1669 1670 1735 1736 1769
1704 6 1638 1670 1671 1736 1737 1770
1705 6 1639 1671 1672 1737 1738 1771
1706 6 1640 1672 1673 1738 1739 1772
1707 6 1641 1673 1674 1739 1740 1773
1708 6 1642 1674 1675 1740 1741 1774
1709 6 1643 1675 1676 1741 1742 1775
1710 6 1644 1676 1677 1742 1743 1776
1711 6 1645 1677 1678 1743 1744 1777
1712 6 1646 1679 1680 1745 1746 1778
1713 6 1647 1680 1681 1746 1747 1779
1714 6 1648 1681 1682 1747 1748 1780
1715 6 1649 1682 1683 1748 1749 1781
1716 6 1650 1683 1684 1749 1750 1782
1717 6 1651 1684 1685 1750 1751 1783
1718 6 1652 1685 1686 1751 1752 1784
1719 6 1653 1686 1687 1752 1753 1785
1720 6 1654 1687 1688 1753 1754 1786
1721 6 1655 1688 1689 1754 1755 1787
1722 6 1656 1689 1690 1755 1756 1788
1723 6 1657 1690 1691 1756 1757 1789
1724 6 1658 1691 1692 1757 1758 1790
1725 6 1659 1692 1693 1758 1759 1791
1726 6 1660 1693 1694 1759 1760 1792
1727 6 1661 1694 1695 1760 1761 1793
1728 6 1662 1695 1696 1761 1762 1794
1729 6 1663 1696 1697 1762 1763 1795
1730 6 1664 1697 1698 1763 1764 1796
1731 6 1665 1698 1699 1764 1765 1797
1732 6 1666 1699 1700 1765 1766 1798
1733 6 1667 1700 1701 1766 1767 1799
1734 6 1668 1701 1702 1767 1768 1800
1735 6 1669 1702 1703 1768 1769 1801
1736 6 1670 1703 1704 1769 1770 1802
1737 6 1671 1704 1705 1770 1771 1803
1738 6 1672 1705 1706 1771 1772 1804
1739 6 1673 1706 1707 1772 1773 1805
1740 6 1674 1707 1708 1773 1774 1806
1741 6 1675 1708 1709 1774 1775 1807
1742 6 1676 1709 1710 1775 1776 1808
1743 6 1677 1710 1711 1776 1777 1809
1744 4 1678 1711 1777 1810
1745 4 1679 1712 1778 1811
1746 6 1680 1712 1713 1778 1779 1812
1747 6 1681 1713 1714 1779 1780 1813
1748 6 1682 1714 1715 1780 1781 1814
1749 6 1683 1715 1716 1781 1782 1815
1750 6 1684 1716 1717 1782 1783 1816
1751 6 1685 1717 1718 1783 1784 1817
1752 6 1686 1718 1719 1784 1785 1818
1753 6 1687 1719 1720 1785 1786 1819
1754 6 1688 1720 1721 1786 1787 1820
1755 6 1689 1721 1722 1787 1788 1821
1756 6 1690 1722 1723 1788 1789 1822
1757 6 1691 1723 1724 1789 1790 1823
1758 6 1692 1724 1725 1790 1791 1824
1759 6 1693 1725 1726 1791 1792 1825
1760 6 1694 1726 1727 1792 1793 1826
1761 6 1695 1727 1728 1793 1794 1827
1762 6 1696 1728 1729 1794 1795 1828
1763 6 1697 1729 1730 1795 1796 1829
1764 6 1698 1730 1731 1796 1797 1830
1765 6 1699 1731 1732 1797 1798 1831
1766 6 1700 1732 1733 1798 1799 1832
1767 6 1701 1733 1734 1799 1800 1833
1768 6 1702 1734 1735 1800 1801 1834
1769 6 1703 1735 1736 1801 1802 1835
1770 6 1704 1736 1737 1802 1803 1836
1771 6 1705 1737 1738 1803 1804 1837
1772 6 1706 1738 1739 1804 1805 1838
1773 6 1707 1739 1740 1805 1806 1839
1774 6 1708 1740 1741 1806 1807 1840
1775 6 1709 1741 1742 1807 1808 1841
1776 6 1710 1742 1743 1808 1809 1842
1777 6 1711 1743 1744 1809 1810 1843
1778 6 1712 1745 1746 1811 1812 1845
1779 6 1713 1746 1747 1812 1813 1846
1780 6 1714 1747 1748 1813 1814 1847
1781 6 1715 1748 1749 1814 1815 1848
1782 6 1716 1749 1750 1815 1816 1849
1783 6 1717 1750 1751 1816 1817 1850
1784 6 1718 1751 1752 1817 1818 1851
1785 6 1719 1752 1753 1818 1819 1852
1786 6 1720 1753 1754 1819 1820 1853
1787 6 1721 1754 1755 1820 1821 1854
1788 6 1722 1755 1756 1821 1822 1855
1789 6 1723 1756 1757 1822 1823 1856
1790 6 1724 1757 1758 1823 1824 1857
1791 6 1725 1758 1759 1824 1825 1858
1792 6 1726 1759 1760 1825 1826 1859
1793 6 1727 1760 1761 1826 1827 1860
1794 6 1728 1761 1762 1827 1828 1861
1795 6 1729 1762 1763 1828 1829 1862
1796 6 1730 1763 1764 1829 1830 1863
1797 6 1731 1764 1765 1830 1831 1864
1798 6 1732 1765 1766 1831 1832 1865
1799 6 1733 1766 1767 1832 1833 1866
1800 6 1734 1767 1768 1833 1834 1867
1801 6 1735 1768 1769 1834 1835 1868
1802 6 1736 1769 1770 1835 1836 1869
1803 6 1737 1770 1771 1836 1837 1870
1804 6 1738 1771 1772 1837 1838 1871
1805 6 1739 1772 1773 1838 1839 1872
1806 6 1740 1773 1774 1839 1840 1873
1807 6 1741 1774 1775 1840 1841 1874
1808 6 1742 1775 1776 1841 1842 1875
1809 6 1743 1776 1777 1842 1843 1876
1810 3 1744 1777 1843
1811 5 1745 1778 1844 1845 1877
1812 6 1746 1778 1779 1845 1846 1878
1813 6 1747 1779 1780 1846 1847 1879
1814 6 1748 1780 1781 1847 1848 1880
1815 6 1749 1781 1782 1848 1849 1881
1816 6 1750 1782 1783 1849 1850 1882
1817 6 1751 1783 1784 1850 1851 1883
1818 6 1752 1784 1785 1851 1852 1884
1819 6 1753 1785 1786 1852 1853 1885
1820 6 1754 1786 1787 1853 1854 1886
1821 6 1755 1787 1788 1854 1855 1887
1822 6 1756 1788 1789 1855 1856 1888
1823 6 1757 1789 1790 1856 1857 1889
1824 6 1758 1790 1791 1857 1858 1890
1825 6 1759 1791 1792 1858 1859 1891
1826 6 1760 1792 1793 1859 1860 1892
1827 6 1761 1793 1794 1860 1861 1893
1828 6 1762 1794 1795 1861 1862 1894
1829 6 1763 1795 1796 1862 1863 1895
1830 6 1764 1796 1797 1863 1864 1896
1831 6 1765 1797 1798 1864 1865 1897
1832 6 1766 1798 1799 1865 1866 1898
1833 6 1767 1799 1800 1866 1867 1899
1834 6 1768 1800 1801 1867 1868 1900
1835 6 1769 1801 1802 1868 1869 1901
1836 6 1770 1802 1803 1869 1870 1902
1837 6 1771 1803 1804 1870 1871 1903
1838 6 1772 1804 1805 1871 1872 1904
1839 6 1773 1805 1806 1872 1873 1905
1840 6 1774 1806 1807 1873 1874 1906
1841 6 1775 1807 1808 1874 1875 1907
1842 6 1776 1808 1809 1875 1876 1908
1843 5 1777 1809 1810 1876 1909
1844 3 1811 1877 1910
1845 6 1778 1811 1812 1877 1878 1911
1846 6 1779 1812 1813 1878 1879 1912
1847 6 1780 1813 1814 1879 1880 1913
1848 6 1781 1814 1815 1880 1881 1914
1849 6 1782 1815 1816 1881 1882 1915
1850 6 1783 1816 1817 1882 1883 1916
1851 6 1784 1817 1818 1883 1884 1917
1852 6 1785 1818 1819 1884 1885 1918
1853 6 1786 1819 1820 1885 1886 1919
1854 6 1787 1820 1821 1886 1887 1920
1855 6 1788 1821 1822 1887 1888 1921
1856 6 1789 1822 1823 1888 1889 1922
1857 6 1790 1823 1824 1889 1890 1923
1858 6 1791 1824 1825 1890 1891 1924
1859 6 1792 1825 1826 1891 1892 1925
1860 6 1793 1826 1827 1892 1893 1926
1861 6 1794 1827 1828 1893 1894 1927
1862 6 1795 1828 1829 1894 1895 1928
1863 6 1796 1829 1830 1895 1896 1929
1864 6 1797 1830 1831 1896 1897 1930
1865 6 1798 1831 1832 1897 1898 1931
1866 6 1799 1832 1833 1898 1899 1932
1867 6 1800 1833 1834 1899 1900 1933
1868 6 1801 1834 1835 1900 1901 1934
1869 6 1802 1835 1836 1901 1902 1935
1870 6 1803 1836 1837 1902 1903 1936
1871 6 1804 1837 1838 1903 1904 1937
1872 6 1805 1838 1839 1904 1905 1938
1873 6 1806 1839 1840 1905 1906 1939
1874 6 1807 1840 1841 1906 1907 1940
1875 6 1808 1841 1842 1907 1908 1941
1876 6 1809 1842 1843 1908 1909 1942
1877 6 1811 1844 1845 1910 1911 1943
1878 6 1812 1845 1846 1911 1912 1944
1879 6 1813 1846 1847 1912 1913 1945
1880 6 1814 1847 1848 1913 1914 1946
1881 6 1815 1848 1849 1914 1915 1947
1882 6 1816 1849 1850 1915 1916 1948
1883 6 1817 1850 1851 1916 1917 1949
1884 6 1818 1851 1852 1917 1918 1950
1885 6 1819 1852 1853 1918 1919 1951
1886 6 1820 1853 1854 1919 1920 1952
1887 6 1821 1854 1855 1920 1921 1953
1888 6 1822 1855 1856 1921 1922 1954
1889 6 1823 1856 1857 1922 1923 1955
1890 6 1824 1857 1858 1923 1924 1956
1891 6 1825 1858 1859 1924 1925 1957
1892 6 1826 1859 1860 1925 1926 1958
1893 6 1827 1860 1861 1926 1927 1959
1894 6 1828 1861 1862 1927 1928 1960
1895 6 1829 1862 1863 1928 1929 1961
1896 6 1830 1863 1864 1929 1930 1962
1897 6 1831 1864 1865 1930 1931 1963
1898 6 1832 1865 1866 1931 1932 1964
1899 6 1833 1866 1867 1932 1933 1965
1900 6 1834 1867 1868 1933 1934 1966
1901 6 1835 1868 1869 1934 1935 1967
1902 6 1836 1869 1870 1935 1936 1968
1903 6 1837 1870 1871 1936 1937 1969
1904 6 1838 1871 1872 1937 1938 1970
1905 6 1839 1872 1873 1938 1939 1971
1906 6 1840 1873 1874 1939 1940 1972
1907 6 1841 1874 1875 1940 1941 1973
1908 6 1842 1875 1876 1941 1942 1974
1909 4 1843 1876 1942 1975
1910 3 1844 1877 1943
1911 6 1845 1877 1878 1943 1944 1976
1912 6 1846 1878 1879 1944 1945 1977
1913 6 1847 1879 1880 1945 1946 1978
1914 6 1848 1880 1881 1946 1947 1979
1915 6 1849 1881 1882 1947 1948 1980
1916 6 1850 1882 1883 1948 1949 1981
1917 6 1851 1883 1884 1949 1950 1982
1918 6 1852 1884 1885 1950 1951 1983
1919 6 1853 1885 1886 1951 1952 1984
1920 6 1854 1886 1887 1952 1953 1985
1921 6 1855 1887 1888 1953 1954 1986
1922 6 1856 1888 1889 1954 1955 1987
1923 6 1857 1889 1890 1955 1956 1988
1924 6 1858 1890 1891 1956 1957 1989
1925 6 1859 1891 1892 1957 1958 1990
1926 6 1860 1892 1893 1958 1959 1991
1927 6 1861 1893 1894 1959 1960 1992
1928 6 1862 1894 1895 1960 1961 1993
1929 6 1863 1895 1896 1961 1962 1994
1930 6 1864 1896 1897 1962 1963 1995
1931 6 1865 1897 1898 1963 1964 1996
1932 6 1866 1898 1899 1964 1965 1997
1933 6 1867 1899 1900 1965 1966 1998
1934 6 1868 1900 1901 1966 1967 1999
1935 6 1869 1901 1902 1967 1968 2000
1936 6 1870 1902 1903 1968 1969 2001
1937 6 1871 1903 1904 1969 1970 2002
1938 6 1872 1904 1905 1970 1971 2003
1939 6 1873 1905 1906 1971 1972 2004
1940 6 1874 1906 1907 1972 1973 2005
1941 6 1875 1907 1908 1973 1974 2006
1942 6 1876 1908 1909 1974 1975 2007
1943 4 1877 1910 1911 1976
1944 6 1878 1911 1912 1976 1977 2008
1945 6 1879 1912 1913 1977 1978 2009
1946 6 1880 1913 1914 1978 1979 2010
1947 6 1881 1914 1915 1979 1980 2011
1948 6 1882 1915 1916 1980 1981 2012
1949 6 1883 1916 1917 1981 1982 2013
1950 6 1884 1917 1918 1982 1983 2014
1951 6 1885 1918 1919 1983 1984 2015
1952 6 1886 1919 1920 1984 1985 2016
1953 6 1887 1920 1921 1985 1986 2017
1954 6 1888 1921 1922 1986 1987 2018
1955 6 1889 1922 1923 1987 1988 2019
1956 6 1890 1923 1924 1988 1989 2020
1957 6 1891 1924 1925 1989 1990 2021
1958 6 1892 1925 1926 1990 1991 2022
1959 6 1893 1926 1927 1991 1992 2023
1960 6 1894 1927 1928 1992 1993 2024
1961 6 1895 1928 1929 1993 1994 2025
1962 6 1896 1929 1930 1994 1995 2026
1963 6 1897 1930 1931 1995 1996 2027
1964 6 1898 1931 1932 1996 1997 2028
1965 6 1899 1932 1933 1997 1998 2029
1966 6 1900 1933 1934 1998 1999 2030
1967 6 1901 1934 1935 1999 2000 2031
1968 6 1902 1935 1936 2000 2001 2032
1969 6 1903 1936 1937 2001 2002 2033
1970 6 1904 1937 1938 2002 2003 2034
1971 6 1905 1938 1939 2003 2004 2035
1972 6 1906 1939 1940 2004 2005 2036
1973 6 1907 1940 1941 2005 2006 2037
1974 6 1908 1941 1942 2006 2007 2038
1975 4 1909 1942 2007 2039
1976 5 1911 1943 1944 2008 2040
1977 6 1912 1944 1945 2008 2009 2041
1978 6 1913 1945 1946 2009 2010 2042
1979 6 1914 1946 1947 2010 2011 2043
1980 6 1915 1947 1948 2011 2012 2044
1981 6 1916 1948 1949 2012 2013 2045
1982 6 1917 1949 1950 2013 2014 2046
1983 6 1918 1950 1951 2014 2015 2047
1984 6 1919 1951 1952 2015 2016 2048
1985 6 1920 1952 1953 2016 2017 2049
1986 6 1921 1953 1954 2017 2018 2050
1987 6 1922 1954 1955 2018 2019 2051
1988 6 1923 1955 1956 2019 2020 2052
1989 6 1924 1956 1957 2020 2021 2053
1990 6 1925 1957 1958 2021 2022 2054
1991 6 1926 1958 1959 2022 2023 2055
1992 6 1927 1959 1960 2023 2024 2056
1993 6 1928 1960 1961 2024 2025 2057
1994 6 1929 1961 1962 2025 2026 2058
1995 6 1930 1962 1963 2026 2027 2059
1996 6 1931 1963 1964 2027 2028 2060
1997 6 1932 1964 1965 2028 2029 2061
1998 6 1933 1965 1966 2029 2030 2062
1999 6 1934 1966 1967 2030 2031 2063
2000 6 1935 1967 1968 2031 2032 2064
2001 6 1936 1968 1969 2032 2033 2065
2002 6 1937 1969 1970 2033 2034 2066
2003 6 1938 1970 1971 2034 2035 2067
2004 6 1939 1971 1972 2035 2036 2068
2005 6 1940 1972 1973 2036 2037 2069
2006 6 1941 1973 1974 2037 2038 2070
2007 6 1942 1974 1975 2038 2039 2071
2008 6 1944 1976 1977 2040 2041 2072
2009 6 1945 1977 1978 2041 2042 2073
2010 6 1946 1978 1979 2042 2043 2074
2011 6 1947 1979 1980 2043 2044 2075
2012 6 1948 1980 1981 2044 2045 2076
2013 6 1949 1981 1982 2045 2046 2077
2014 6 1950 1982 1983 2046 2047 2078
2015 6 1951 1983 1984 2047 2048 2079
2016 6 1952 1984 1985 2048 2049 2080
2017 6 1953 1985 1986 2049 2050 2081
2018 6 1954 1986 1987 2050 2051 2082
2019 6 1955 1987 1988 2051 2052 2083
2020 6 1956 1988 1989 2052 2053 2084
2021 6 1957 1989 1990 2053 2054 2085
2022 6 1958 1990 1991 2054 2055 2086
2023 6 1959 1991 1992 2055 2056 2087
2024 6 1960 1992 1993 2056 2057 2088
2025 6 1961 1993 1994 2057 2058 2089
2026 6 1962 1994 1995 2058 2059 2090
2027 6 1963 1995 1996 2059 2060 2091
2028 6 1964 1996 1997 2060 2061 2092
2029 6 1965 1997 1998 2061 2062 2093
2030 6 1966 1998 1999 2062 2063 2094
2031 6 1967 1999 2000 2063 2064 2095
2032 6 1968 2000 2001 2064 2065 2096
2033 6 1969 2001 2002 2065 2066 2097
2034 6 1970 2002 2003 2066 2067 2098
2035 6 1971 2003 2004 2067 2068 2099
2036 6 1972 2004 2005 2068 2069 2100
2037 6 1973 2005 2006 2069 2070 2101
2038 6 1974 2006 2007 2070 2071 2102
2039 4 1975 2007 2071 2103
2040 4 1976 2008 2072 2104
2041 6 1977 2008 2009 2072 2073 2105
2042 6 1978 2009 2010 2073 2074 2106
2043 6 1979 2010 2011 2074 2075 2107
2044 6 1980 2011 2012 2075 2076 2108
2045 6 1981 2012 2013 2076 2077 2109
2046 6 1982 2013 2014 2077 2078 2110
2047 6 1983 2014 2015 2078 2079 2111
2048 6 1984 2015 2016 2079 2080 2112
2049 6 1985 2016 2017 2080 2081 2113
2050 6 1986 2017 2018 2081 2082 2114
2051 6 1987 2018 2019 2082 2083 2115
2052 6 1988 2019 2020 2083 2084 2116
2053 6 1989 2020 2021 2084 2085 2117
2054 6 1990 2021 2022 2085 2086 2118
2055 6 1991 2022 2023 2086 2087 2119
2056 6 1992 2023 2024 2087 2088 2120
2057 6 1993 2024 2025 2088 2089 2121
2058 6 1994 2025 2026 2089 2090 2122
2059 6 1995 2026 2027 2090 2091 2123
2060 6 1996 2027 2028 2091 2092 2124
2061 6 1997 2028 2029 2092 2093 2125
2062 6 1998 2029 2030 2093 2094 2126
2063 6 1999 2030 2031 2094 2095 2127
2064 6 2000 2031 2032 2095 2096 2128
2065 6 2001 2032 2033 2096 2097 2129
2066 6 2002 2033 2034 2097 2098 2130
2067 6 2003 2034 2035 2098 2099 2131
2068 6 2004 2035 2036 2099 2100 2132
2069 6 2005 2036 2037 2100 2101 2133
2070 6 2006 2037 2038 2101 2102 2134
2071 6 2007 2038 2039 2102 2103 2135
2072 6 2008 2040 2041 2104 2105 2137
2073 6 2009 2041 2042 2105 2106 2138
2074 6 2010 2042 2043 2106 2107 2139
2075 6 2011 2043 2044 2107 2108 2140
2076 6 2012 2044 2045 2108 2109 2141
2077 6 2013 2045 2046 2109 2110 2142
2078 6 2014 2046 2047 2110 2111 2143
2079 6 2015 2047 2048 2111 2112 2144
2080 6 2016 2048 2049 2112 2113 2145
2081 6 2017 2049 2050 2113 2114 2146
2082 6 2018 2050 2051 2114 2115 2147
2083 6 2019 2051 2052 2115 2116 2148
2084 6 2020 2052 2053 2116 2117 2149
2085 6 2021 2053 2054 2117 2118 2150
2086 6 2022 2054 2055 2118 2119 2151
2087 6 2023 2055 2056 2119 2120 2152
2088 6 2024 2056 2057 2120 2121 2153
2089 6 2025 2057 2058 2121 2122 2154
2090 6 2026 2058 2059 2122 2123 2155
2091 6 2027 2059 2060 2123 2124 2156
2092 6 2028 2060 2061 2124 2125 2157
2093 6 2029 2061 2062 2125 2126 2158
2094 6 2030 2062 2063 2126 2127 2159
2095 6 2031 2063 2064 2127 2128 2160
2096 6 2032 2064 2065 2128 2129 2161
2097 6 2033 2065 2066 2129 2130 2162
2098 6 2034 2066 2067 2130 2131 2163
2099 6 2035 2067 2068 2131 2132 2164
2100 6 2036 2068 2069 2132 2133 2165
2101 6 2037 2069 2070 2133 2134 2166
2102 6 2038 2070 2071 2134 2135 2167
2103 3 2039 2071 2135
2104 5 2040 2072 2136 2137 2168
2105 6 2041 2072 2073 2137 2138 2169
2106 6 2042 2073 2074 2138 2139 2170
2107 6 2043 2074 2075 2139 2140 2171
2108 6 2044 2075 2076 2140 2141 2172
2109 6 2045 2076 2077 2141 2142 2173
2110 6 2046 2077 2078 2142 2143 2174
2111 6 2047 2078 2079 2143 2144 2175
2112 6 2048 2079 2080 2144 2145 2176
2113 6 2049 2080 2081 2145 2146 2177
2114 6 2050 2081 2082 2146 2147 2178
2115 6 2051 2082 2083 2147 2148 2179
2116 6 2052 2083 2084 2148 2149 2180
2117 6 2053 2084 2085 2149 2150 2181
2118 6 2054 2085 2086 2150 2151 2182
2119 6 2055 2086 2087 2151 2152 2183
2120 6 2056 2087 2088 2152 2153 2184
2121 6 2057 2088 2089 2153 2154 2185
2122 6 2058 2089 2090 2154 2155 2186
2123 6 2059 2090 2091 2155 2156 2187
2124 6 2060 2091 2092 2156 2157 2188
2125 6 2061 2092 2093 2157 2158 2189
2126 6 2062 2093 2094 2158 2159 2190
2127 6 2063 2094 2095 2159 2160 2191
2128 6 2064 2095 2096 2160 2161 2192
2129 6 2065 2096 2097 2161 2162 2193
2130 6 2066 2097 2098 2162 2163 2194
2131 6 2067 2098 2099 2163 2164 2195
2132 6 2068 2099 2100 2164 2165 2196
2133 6 2069 2100 2101 2165 2166 2197
2134 6 2070 2101 2102 2166 2167 2198
2135 5 2071 2102 2103 2167 2199
2136 3 2104 2168 2200
2137 6 2072 2104 2105 2168 2169 2201
2138 6 2073 2105 2106 2169 2170 2202
2139 6 2074 2106 2107 2170 2171 2203
2140 6 2075 2107 2108 2171 2172 2204
2141 6 2076 2108 2109 2172 2173 2205
2142 6 2077 2109 2110 2173 2174 2206
2143 6 2078 2110 2111 2174 2175 2207
2144 6 2079 2111 2112 2175 2176 2208
2145 6 2080 2112 2113 2176 2177 2209
2146 6 2081 2113 2114 2177 2178 2210
2147 6 2082 2114 2115 2178 2179 2211
2148 6 2083 2115 2116 2179 2180 2212
2149 6 2084 2116 2117 2180 2181 2213
2150 6 2085 2117 2118 2181 2182 2214
2151 6 2086 2118 2119 2182 2183 2215
2152 6 2087 2119 2120 2183 2184 2216
2153 6 2088 2120 2121 2184 2185 2217
2154 6 2089 2121 2122 2185 2186 2218
2155 6 2090 2122 2123 2186 2187 2219
2156 6 2091 2123 2124 2187 2188 2220
2157 6 2092 2124 2125 2188 2189 2221
2158 6 2093 2125 2126 2189 2190 2222
2159 6 2094 2126 2127 2190 2191 2223
2160 6 2095 2127 2128 2191 2192 2224
2161 6 2096 2128 2129 2192 2193 2225
2162 6 2097 2129 2130 2193 2194 2226
2163 6 2098 2130 2131 2194 2195 2227
2164 6 2099 2131 2132 2195 2196 2228
2165 6 2100 2132 2133 2196 2197 2229
2166 6 2101 2133 2134 2197 2198 2230
2167 6 2102 2134 2135 2198 2199 2231
2168 6 2104 2136 2137 2200 2201 2233
2169 6 2105 2137 2138 2201 2202 2234
2170 6 2106 2138 2139 2202 2203 2235
2171 6 2107 2139 2140 2203 2204 2236
2172 6 2108 2140 2141 2204 2205 2237
2173 6 2109 2141 2142 2205 2206 2238
2174 6 2110 2142 2143 2206 2207 2239
2175 6 2111 2143 2144 2207 2208 2240
2176 6 2112 2144 2145 2208 2209 2241
2177 6 2113 2145 2146 2209 2210 2242
2178 6 2114 2146 2147 2210 2211 2243
2179 6 2115 2147 2148 2211 2212 2244
2180 6 2116 2148 2149 2212 2213 2245
2181 6 2117 2149 2150 2213 2214 2246
2182 6 2118 2150 2151 2214 2215 2247
2183 6 2119 2151 2152 2215 2216 2248
2184 6 2120 2152 2153 2216 2217 2249
2185 6 2121 2153 2154 2217 2218 2250
2186 6 2122 2154 2155 2218 2219 2251
2187 6 2123 2155 2156 2219 2220 2252
2188 6 2124 2156 2157 2220 2221 2253
2189 6 2125 2157 2158 2221 2222 2254
2190 6 2126 2158 2159 2222 2223 2255
2191 6 2127 2159 2160 2223 2224 2256
2192 6 2128 2160 2161 2224 2225 2257
2193 6 2129 2161 2162 2225 2226 2258
2194 6 2130 2162 2163 2226 2227 2259
2195 6 2131 2163 2164 2227 2228 2260
2196 6 2132 2164 2165 2228 2229 2261
2197 6 2133 2165 2166 2229 2230 2262
2198 6 2134 2166 2167 2230 2231 2263
2199 4 2135 2167 2231 2264
2200 5 2136 2168 2232 2233 2265
2201 6 2137 2168 2169 2233 2234 2266
2202 6 2138 2169 2170 2234 2235 2267
2203 6 2139 2170 2171 2235 2236 2268
2204 6 2140 2171 2172 2236 2237 2269
2205 6 2141 2172 2173 2237 2238 2270
2206 6 2142 2173 2174 2238 2239 2271
2207 6 2143 2174 2175 2239 2240 2272
2208 6 2144 2175 2176 2240 2241 2273
2209 6 2145 2176 2177 2241 2242 2274
2210 6 2146 2177 2178 2242 2243 2275
2211 6 2147 2178 2179 2243 2244 2276
2212 6 2148 2179 2180 2244 2245 2277
2213 6 2149 2180 2181 2245 2246 2278
2214 6 2150 2181 2182 2246 2247 2279
2215 6 2151 2182 2183 2247 2248 2280
2216 6 2152 2183 2184 2248 2249 2281
2217 6 2153 2184 2185 2249 2250 2282
2218 6 2154 2185 2186 2250 2251 2283
2219 6 2155 2186 2187 2251 2252 2284
2220 6 2156 2187 2188 2252 2253 2285
2221 6 2157 2188 2189 2253 2254 2286
2222 6 2158 2189 2190 2254 2255 2287
2223 6 2159 2190 2191 2255 2256 2288
2224 6 2160 2191 2192 2256 2257 2289
2225 6 2161 2192 2193 2257 2258 2290
2226 6 2162 2193 2194 2258 2259 2291
2227 6 2163 2194 2195 2259 2260 2292
2228 6 2164 2195 2196 2260 2261 2293
2229 6 2165 2196 2197 2261 2262 2294
2230 6 2166 2197 2198 2262 2263 2295
2231 6 2167 2198 2199 2263 2264 2296
2232 3 2200 2265 2297
2233 6 2168 2200 2201 2265 2266 2298
2234 6 2169 2201 2202 2266 2267 2299
2235 6 2170 2202 2203 2267 2268 2300
2236 6 2171 2203 2204 2268 2269 2301
2237 6 2172 2204 2205 2269 2270 2302
2238 6 2173 2205 2206 2270 2271 2303
2239 6 2174 2206 2207 2271 2272 2304
2240 6 2175 2207 2208 2272 2273 2305
2241 6 2176 2208 2209 2273 2274 2306
2242 6 2177 2209 2210 2274 2275 2307
2243 6 2178 2210 2211 2275 2276 2308
2244 6 2179 2211 2212 2276 2277 2309
2245 6 2180 2212 2213 2277 2278 2310
2246 6 2181 2213 2214 2278 2279 2311
2247 6 2182 2214 2215 2279 2280 2312
2248 6 2183 2215 2216 2280 2281 2313
2249 6 2184 2216 2217 2281 2282 2314
2250 6 2185 2217 2218 2282 2283 2315
2251 6 2186 2218 2219 2283 2284 2316
2252 6 2187 2219 2220 2284 2285 2317
2253 6 2188 2220 2221 2285 2286 2318
2254 6 2189 2221 2222 2286 2287 2319
2255 6 2190 2222 2223 2287 2288 2320
2256 6 2191 2223 2224 2288 2289 2321
2257 6 2192 2224 2225 2289 2290 2322
2258 6 2193 2225 2226 2290 2291 2323
2259 6 2194 2226 2227 2291 2292 2324
2260 6 2195 2227 2228 2292 2293 2325
2261 6 2196 2228 2229 2293 2294 2326
2262 6 2197 2229 2230 2294 2295 2327
2263 6 2198 2230 2231 2295 2296 2328
2264 4 2199 2231 2296 2329
2265 6 2200 2232 2233 2297 2298 2331
2266 6 2201 2233 2234 2298 2299 2332
2267 6 2202 2234 2235 2299 2300 2333
2268 6 2203 2235 2236 2300 2301 2334
2269 6 2204 2236 2237 2301 2302 2335
2270 6 2205 2237 2238 2302 2303 2336
2271 6 2206 2238 2239 2303 2304 2337
2272 6 2207 2239 2240 2304 2305 2338
2273 6 2208 2240 2241 2305 2306 2339
2274 6 2209 2241 2242 2306 2307 2340
2275 6 2210 2242 2243 2307 2308 2341
2276 6 2211 2243 2244 2308 2309 2342
2277 6 2212 2244 2245 2309 2310 2343
2278 6 2213 2245 2246 2310 2311 2344
2279 6 2214 2246 2247 2311 2312 2345
2280 6 2215 2247 2248 2312 2313 2346
2281 6 2216 2248 2249 2313 2314 2347
2282 6 2217 2249 2250 2314 2315 2348
2283 6 2218 2250 2251 2315 2316 2349
2284 6 2219 2251 2252 2316 2317 2350
2285 6 2220 2252 2253 2317 2318 2351
2286 6 2221 2253 2254 2318 2319 2352
2287 6 2222 2254 2255 2319 2320 2353
2288 6 2223 2255 2256 2320 2321 2354
2289 6 2224 2256 2257 2321 2322 2355
2290 6 2225 2257 2258 2322 2323 2356
2291 6 2226 2258 2259 2323 2324 2357
2292 6 2227 2259 2260 2324 2325 2358
2293 6 2228 2260 2261 2325 2326 2359
2294 6 2229 2261 2262 2326 2327 2360
2295 6 2230 2262 2263 2327 2328 2361
2296 6 2231 2263 2264 2328 2329 2362
2297 5 2232 2265 2330 2331 2364
2298 6 2233 2265 2266 2331 2332 2365
2299 6 2234 2266 2267 2332 2333 2366
2300 6 2235 2267 2268 2333 2334 2367
2301 6 2236 2268 2269 2334 2335 2368
2302 6 2237 2269 2270 2335 2336 2369
2303 6 2238 2270 2271 2336 2337 2370
2304 6 2239 2271 2272 2337 2338 2371
2305 6 2240 2272 2273 2338 2339 2372
2306 6 2241 2273 2274 2339 2340 2373
2307 6 2242 2274 2275 2340 2341 2374
2308 6 2243 2275 2276 2341 2342 2375
2309 6 2244 2276 2277 2342 2343 2376
2310 6 2245 2277 2278 2343 2344 2377
2311 6 2246 2278 2279 2344 2345 2378
2312 6 2247 2279 2280 2345 2346 2379
2313 6 2248 2280 2281 2346 2347 2380
2314 6 2249 2281 2282 2347 2348 2381
2315 6 2250 2282 2283 2348 2349 2382
2316 6 2251 2283 2284 2349 2350 2383
2317 6 2252 2284 2285 2350 2351 2384
2318 6 2253 2285 2286 2351 2352 2385
2319 6 2254 2286 2287 2352 2353 2386
2320 6 2255 2287 2288 2353 2354 2387
2321 6 2256 2288 2289 2354 2355 2388
2322 6 2257 2289 2290 2355 2356 2389
2323 6 2258 2290 2291 2356 2357 2390
2324 6 2259 2291 2292 2357 2358 2391
2325 6 2260 2292 2293 2358 2359 2392
2326 6 2261 2293 2294 2359 2360 2393
2327 6 2262 2294 2295 2360 2361 2394
2328 6 2263 2295 2296 2361 2362 2395
2329 4 2264 2296 2362 2396
2330 4 2297 2363 2364 2398
2331 6 2265 2297 2298 2364 2365 2399
2332 6 2266 2298 2299 2365 2366 2400
2333 6 2267 2299 2300 2366 2367 2401
2334 6 2268 2300 2301 2367 2368 2402
2335 6 2269 2301 2302 2368 2369 2403
2336 6 2270 2302 2303 2369 2370 2404
2337 6 2271 2303 2304 2370 2371 2405
2338 6 2272 2304 2305 2371 2372 2406
2339 6 2273 2305 2306 2372 2373 2407
2340 6 2274 2306 2307 2373 2374 2408
2341 6 2275 2307 2308 2374 2375 2409
2342 6 2276 2308 2309 2375 2376 2410
2343 6 2277 2309 2310 2376 2377 2411
2344 6 2278 2310 2311 2377 2378 2412
2345 6 2279 2311 2312 2378 2379 2413
2346 6 2280 2312 2313 2379 2380 2414
2347 6 2281 2313 2314 2380 2381 2415
2348 6 2282 2314 2315 2381 2382 2416
2349 6 2283 2315 2316 2382 2383 2417
2350 6 2284 2316 2317 2383 2384 2418
2351 6 2285 2317 2318 2384 2385 2419
2352 6 2286 2318 2319 2385 2386 2420
2353 6 2287 2319 2320 2386 2387 2421
2354 6 2288 2320 2321 2387 2388 2422
2355 6 2289 2321 2322 2388 2389 2423
2356 6 2290 2322 2323 2389 2390 2424
2357 6 2291 2323 2324 2390 2391 2425
2358 6 2292 2324 2325 2391 2392 2426
2359 6 2293 2325 2326 2392 2393 2427
2360 6 2294 2326 2327 2393 2394 2428
2361 6 2295 2327 2328 2394 2395 2429
2362 6 2296 2328 2329 2395 2396 2430
2363 4 2330 2397 2398 2431
2364 6 2297 2330 2331 2398 2399 2432
2365 6 2298 2331 2332 2399 2400 2433
2366 6 2299 2332 2333 2400 2401 2434
2367 6 2300 2333 2334 2401 2402 2435
2368 6 2301 2334 2335 2402 2403 2436
2369 6 2302 2335 2336 2403 2404 2437
2370 6 2303 2336 2337 2404 2405 2438
2371 6 2304 2337 2338 2405 2406 2439
2372 6 2305 2338 2339 2406 2407 2440
2373 6 2306 2339 2340 2407 2408 2441
2374 6 2307 2340 2341 2408 2409 2442
2375 6 2308 2341 2342 2409 2410 2443
2376 6 2309 2342 2343 2410 2411 2444
2377 6 2310 2343 2344 2411 2412 2445
2378 6 2311 2344 2345 2412 2413 2446
2379 6 2312 2345 2346 2413 2414 2447
2380 6 2313 2346 2347 2414 2415 2448
2381 6 2314 2347 2348 2415 2416 2449
2382 6 2315 2348 2349 2416 2417 2450
2383 6 2316 2349 2350 2417 2418 2451
2384 6 2317 2350 2351 2418 2419 2452
2385 6 2318 2351 2352 2419 2420 2453
2386 6 2319 2352 2353 2420 2421 2454
2387 6 2320 2353 2354 2421 2422 2455
2388 6 2321 2354 2355 2422 2423 2456
2389 6 2322 2355 2356 2423 2424 2457
2390 6 2323 2356 2357 2424 2425 2458
2391 6 2324 2357 2358 2425 2426 2459
2392 6 2325 2358 2359 2426 2427 2460
2393 6 2326 2359 2360 2427 2428 2461
2394 6 2327 2360 2361 2428 2429 2462
2395 6 2328 2361 2362 2429 2430 2463
2396 4 2329 2362 2430 2464
2397 3 2363 2431 2465
2398 6 2330 2363 2364 2431 2432 2466
2399 6 2331 2364 2365 2432 2433 2467
2400 6 2332 2365 2366 2433 2434 2468
2401 6 2333 2366 2367 2434 2435 2469
2402 6 2334 2367 2368 2435 2436 2470
2403 6 2335 2368 2369 2436 2437 2471
2404 6 2336 2369 2370 2437 2438 2472
2405 6 2337 2370 2371 2438 2439 2473
2406 6 2338 2371 2372 2439 2440 2474
2407 6 2339 2372 2373 2440 2441 2475
2408 6 2340 2373 2374 2441 2442 2476
2409 6 2341 2374 2375 2442 2443 2477
2410 6 2342 2375 2376 2443 2444 2478
2411 6 2343 2376 2377 2444 2445 2479
2412 6 2344 2377 2378 2445 2446 2480
2413 6 2345 2378 2379 2446 2447 2481
2414 6 2346 2379 2380 2447 2448 2482
2415 6 2347 2380 2381 2448 2449 2483
2416 6 2348 2381 2382 2449 2450 2484
2417 6 2349 2382 2383 2450 2451 2485
2418 6 2350 2383 2384 2451 2452 2486
2419 6 2351 2384 2385 2452 2453 2487
2420 6 2352 2385 2386 2453 2454 2488
2421 6 2353 2386 2387 2454 2455 2489
2422 6 2354 2387 2388 2455 2456 2490
2423 6 2355 2388 2389 2456 2457 2491
2424 6 2356 2389 2390 2457 2458 2492
2425 6 2357 2390 2391 2458 2459 2493
2426 6 2358 2391 2392 2459 2460 2494
2427 6 2359 2392 2393 2460 2461 2495
2428 6 2360 2393 2394 2461 2462 2496
2429 6 2361 2394 2395 2462 2463 2497
2430 6 2362 2395 2396 2463 2464 2498
2431 6 2363 2397 2398 2465 2466 2501
2432 6 2364 2398 2399 2466 2467 2502
2433 6 2365 2399 2400 2467 2468 2503
2434 6 2366 2400 2401 2468 2469 2504
2435 6 2367 2401 2402 2469 2470 2505
2436 6 2368 2402 2403 2470 2471 2506
2437 6 2369 2403 2404 2471 2472 2507
2438 6 2370 2404 2405 2472 2473 2508
2439 6 2371 2405 2406 2473 2474 2509
2440 6 2372 2406 2407 2474 2475 2510
2441 6 2373 2407 2408 2475 2476 2511
2442 6 2374 2408 2409 2476 2477 2512
2443 6 2375 2409 2410 2477 2478 2513
2444 6 2376 2410 2411 2478 2479 2514
2445 6 2377 2411 2412 2479 2480 2515
2446 6 2378 2412 2413 2480 2481 2516
2447 6 2379 2413 2414 2481 2482 2517
2448 6 2380 2414 2415 2482 2483 2518
2449 6 2381 2415 2416 2483 2484 2519
2450 6 2382 2416 2417 2484 2485 2520
2451 6 2383 2417 2418 2485 2486 2521
2452 6 2384 2418 2419 2486 2487 2522
2453 6 2385 2419 2420 2487 2488 2523
2454 6 2386 2420 2421 2488 2489 2524
2455 6 2387 2421 2422 2489 2490 2525
2456 6 2388 2422 2423 2490 2491 2526
2457 6 2389 2423 2424 2491 2492 2527
2458 6 2390 2424 2425 2492 2493 2528
2459 6 2391 2425 2426 2493 2494 2529
2460 6 2392 2426 2427 2494 2495 2530
2461 6 2393 2427 2428 2495 2496 2531
2462 6 2394 2428 2429 2496 2497 2532
2463 6 2395 2429 2430 2497 2498 2533
2464 4 2396 2430 2498 2534
2465 5 2397 2431 2500 2501 2537
2466 6 2398 2431 2432 2501 2502 2538
2467 6 2399 2432 2433 2502 2503 2539
2468 6 2400 2433 2434 2503 2504 2540
2469 6 2401 2434 2435 2504 2505 2541
2470 6 2402 2435 2436 2505 2506 2542
2471 6 2403 2436 2437 2506 2507 2543
2472 6 2404 2437 2438 2507 2508 2544
2473 6 2405 2438 2439 2508 2509 2545
2474 6 2406 2439 2440 2509 2510 2546
2475 6 2407 2440 2441 2510 2511 2547
2476 6 2408 2441 2442 2511 2512 2548
2477 6 2409 2442 2443 2512 2513 2549
2478 6 2410 2443 2444 2513 2514 2550
2479 6 2411 2444 2445 2514 2515 2551
2480 6 2412 2445 2446 2515 2516 2552
2481 6 2413 2446 2447 2516 2517 2553
2482 6 2414 2447 2448 2517 2518 2554
2483 6 2415 2448 2449 2518 2519 2555
2484 6 2416 2449 2450 2519 2520 2556
2485 6 2417 2450 2451 2520 2521 2557
2486 6 2418 2451 2452 2521 2522 2558
2487 6 2419 2452 2453 2522 2523 2559
2488 6 2420 2453 2454 2523 2524 2560
2489 6 2421 2454 2455 2524 2525 2561
2490 6 2422 2455 2456 2525 2526 2562
2491 6 2423 2456 2457 2526 2527 2563
2492 6 2424 2457 2458 2527 2528 2564
2493 6 2425 2458 2459 2528 2529 2565
2494 6 2426 2459 2460 2529 2530 2566
2495 6 2427 2460 2461 2530 2531 2567
2496 6 2428 2461 2462 2531 2532 2568
2497 6 2429 2462 2463 2532 2533 2569
2498 6 2430 2463 2464 2533 2534 2570
2499 3 2535 2536 2572
2500 4 2465 2536 2537 2573
2501 6 2431 2465 2466 2537 2538 2574
2502 6 2432 2466 2467 2538 2539 2575
2503 6 2433 2467 2468 2539 2540 2576
2504 6 2434 2468 2469 2540 2541 2577
2505 6 2435 2469 2470 2541 2542 2578
2506 6 2436 2470 2471 2542 2543 2579
2507 6 2437 2471 2472 2543 2544 2580
2508 6 2438 2472 2473 2544 2545 2581
2509 6 2439 2473 2474 2545 2546 2582
2510 6 2440 2474 2475 2546 2547 2583
2511 6 2441 2475 2476 2547 2548 2584
2512 6 2442 2476 2477 2548 2549 2585
2513 6 2443 2477 2478 2549 2550 2586
2514 6 2444 2478 2479 2550 2551 2587
2515 6 2445 2479 2480 2551 2552 2588
2516 6 2446 2480 2481 2552 2553 2589
2517 6 2447 2481 2482 2553 2554 2590
2518 6 2448 2482 2483 2554 2555 2591
2519 6 2449 2483 2484 2555 2556 2592
2520 6 2450 2484 2485 2556 2557 2593
2521 6 2451 2485 2486 2557 2558 2594
2522 6 2452 2486 2487 2558 2559 2595
2523 6 2453 2487 2488 2559 2560 2596
2524 6 2454 2488 2489 2560 2561 2597
2525 6 2455 2489 2490 2561 2562 2598
2526 6 2456 2490 2491 2562 2563 2599
2527 6 2457 2491 2492 2563 2564 2600
2528 6 2458 2492 2493 2564 2565 2601
2529 6 2459 2493 2494 2565 2566 2602
2530 6 2460 2494 2495 2566 2567 2603
2531 6 2461 2495 2496 2567 2568 2604
2532 6 2462 2496 2497 2568 2569 2605
2533 6 2463 2497 2498 2569 2570 2606
2534 4 2464 2498 2570 2607
2535 4 2499 2571 2572 2608
2536 5 2499 2500 2572 2573 2609
2537 6 2465 2500 2501 2573 2574 2610
2538 6 2466 2501 2502 2574 2575 2611
2539 6 2467 2502 2503 2575 2576 2612
2540 6 2468 2503 2504 2576 2577 2613
2541 6 2469 2504 2505 2577 2578 2614
2542 6 2470 2505 2506 2578 2579 2615
2543 6 2471 2506 2507 2579 2580 2616
2544 6 2472 2507 2508 2580 2581 2617
2545 6 2473 2508 2509 2581 2582 2618
2546 6 2474 2509 2510 2582 2583 2619
2547 6 2475 2510 2511 2583 2584 2620
2548 6 2476 2511 2512 2584 2585 2621
2549 6 2477 2512 2513 2585 2586 2622
2550 6 2478 2513 2514 2586 2587 2623
2551 6 2479 2514 2515 2587 2588 2624
2552 6 2480 2515 2516 2588 2589 2625
2553 6 2481 2516 2517 2589 2590 2626
2554 6 2482 2517 2518 2590 2591 2627
2555 6 2483 2518 2519 2591 2592 2628
2556 6 2484 2519 2520 2592 2593 2629
2557 6 2485 2520 2521 2593 2594 2630
2558 6 2486 2521 2522 2594 2595 2631
2559 6 2487 2522 2523 2595 2596 2632
2560 6 2488 2523 2524 2596 2597 2633
2561 6 2489 2524 2525 2597 2598 2634
2562 6 2490 2525 2526 2598 2599 2635
2563 6 2491 2526 2527 2599 2600 2636
2564 6 2492 2527 2528 2600 2601 2637
2565 6 2493 2528 2529 2601 2602 2638
2566 6 2494 2529 2530 2602 2603 2639
2567 6 2495 2530 2531 2603 2604 2640
2568 6 2496 2531 2532 2604 2605 2641
2569 6 2497 2532 2533 2605 2606 2642
2570 6 2498 2533 2534 2606 2607 2643
2571 3 2535 2608 2644
2572 6 2499 2535 2536 2608 2609 2645
2573 6 2500 2536 2537 2609 2610 2646
2574 6 2501 2537 2538 2610 2611 2647
2575 6 2502 2538 2539 2611 2612 2648
2576 6 2503 2539 2540 2612 2613 2649
2577 6 2504 2540 2541 2613 2614 2650
2578 6 2505 2541 2542 2614 2615 2651
2579 6 2506 2542 2543 2615 2616 2652
2580 6 2507 2543 2544 2616 2617 2653
2581 6 2508 2544 2545 2617 2618 2654
2582 6 2509 2545 2546 2618 2619 2655
2583 6 2510 2546 2547 2619 2620 2656
2584 6 2511 2547 2548 2620 2621 2657
2585 6 2512 2548 2549 2621 2622 2658
2586 6 2513 2549 2550 2622 2623 2659
2587 6 2514 2550 2551 2623 2624 2660
2588 6 2515 2551 2552 2624 2625 2661
2589 6 2516 2552 2553 2625 2626 2662
2590 6 2517 2553 2554 2626 2627 2663
2591 6 2518 2554 2555 2627 2628 2664
2592 6 2519 2555 2556 2628 2629 2665
2593 6 2520 2556 2557 2629 2630 2666
2594 6 2521 2557 2558 2630 2631 2667
2595 6 2522 2558 2559 2631 2632 2668
2596 6 2523 2559 2560 2632 2633 2669
2597 6 2524 2560 2561 2633 2634 2670
2598 6 2525 2561 2562 2634 2635 2671
2599 6 2526 2562 2563 2635 2636 2672
2600 6 2527 2563 2564 2636 2637 2673
2601 6 2528 2564 2565 2637 2638 2674
2602 6 2529 2565 2566 2638 2639 2675
2603 6 2530 2566 2567 2639 2640 2676
2604 6 2531 2567 2568 2640 2641 2677
2605 6 2532 2568 2569 2641 2642 2678
2606 6 2533 2569 2570 2642 2643 2679
2607 3 2534 2570 2643
2608 6 2535 2571 2572 2644 2645 2681
2609 6 2536 2572 2573 2645 2646 2682
2610 6 2537 2573 2574 2646 2647 2683
2611 6 2538 2574 2575 2647 2648 2684
2612 6 2539 2575 2576 2648 2649 2685
2613 6 2540 2576 2577 2649 2650 2686
2614 6 2541 2577 2578 2650 2651 2687
2615 6 2542 2578 2579 2651 2652 2688
2616 6 2543 2579 2580 2652 2653 2689
2617 6 2544 2580 2581 2653 2654 2690
2618 6 2545 2581 2582 2654 2655 2691
2619 6 2546 2582 2583 2655 2656 2692
2620 6 2547 2583 2584 2656 2657 2693
2621 6 2548 2584 2585 2657 2658 2694
2622 6 2549 2585 2586 2658 2659 2695
2623 6 2550 2586 2587 2659 2660 2696
2624 6 2551 2587 2588 2660 2661 2697
2625 6 2552 2588 2589 2661 2662 2698
2626 6 2553 2589 2590 2662 2663 2699
2627 6 2554 2590 2591 2663 2664 2700
2628 6 2555 2591 2592 2664 2665 2701
2629 6 2556 2592 2593 2665 2666 2702
2630 6 2557 2593 2594 2666 2667 2703
2631 6 2558 2594 2595 2667 2668 2704
2632 6 2559 2595 2596 2668 2669 2705
2633 6 2560 2596 2597 2669 2670 2706
2634 6 2561 2597 2598 2670 2671 2707
2635 6 2562 2598 2599 2671 2672 2708
2636 6 2563 2599 2600 2672 2673 2709
2637 6 2564 2600 2601 2673 2674 2710
2638 6 2565 2601 2602 2674 2675 2711
2639 6 2566 2602 2603 2675 2676 2712
2640 6 2567 2603 2604 2676 2677 2713
2641 6 2568 2604 2605 2677 2678 2714
2642 6 2569 2605 2606 2678 2679 2715
2643 5 2570 2606 2607 2679 2716
2644 5 2571 2608 2680 2681 2717
2645 6 2572 2608 2609 2681 2682 2718
2646 6 2573 2609 2610 2682 2683 2719
2647 6 2574 2610 2611 2683 2684 2720
2648 6 2575 2611 2612 2684 2685 2721
2649 6 2576 2612 2613 2685 2686 2722
2650 6 2577 2613 2614 2686 2687 2723
2651 6 2578 2614 2615 2687 2688 2724
2652 6 2579 2615 2616 2688 2689 2725
2653 6 2580 2616 2617 2689 2690 2726
2654 6 2581 2617 2618 2690 2691 2727
2655 6 2582 2618 2619 2691 2692 2728
2656 6 2583 2619 2620 2692 2693 2729
2657 6 2584 2620 2621 2693 2694 2730
2658 6 2585 2621 2622 2694 2695 2731
2659 6 2586 2622 2623 2695 2696 2732
2660 6 2587 2623 2624 2696 2697 2733
2661 6 2588 2624 2625 2697 2698 2734
2662 6 2589 2625 2626 2698 2699 2735
2663 6 2590 2626 2627 2699 2700 2736
2664 6 2591 2627 2628 2700 2701 2737
2665 6 2592 2628 2629 2701 2702 2738
2666 6 2593 2629 2630 2702 2703 2739
2667 6 2594 2630 2631 2703 2704 2740
2668 6 2595 2631 2632 2704 2705 2741
2669 6 2596 2632 2633 2705 2706 2742
2670 6 2597 2633 2634 2706 2707 2743
2671 6 2598 2634 2635 2707 2708 2744
2672 6 2599 2635 2636 2708 2709 2745
2673 6 2600 2636 2637 2709 2710 2746
2674 6 2601 2637 2638 2710 2711 2747
2675 6 2602 2638 2639 2711 2712 2748
2676 6 2603 2639 2640 2712 2713 2749
2677 6 2604 2640 2641 2713 2714 2750
2678 6 2605 2641 2642 2714 2715 2751
2679 6 2606 2642 2643 2715 2716 2752
2680 3 2644 2717 2753
2681 6 2608 2644 2645 2717 2718 2754
2682 6 2609 2645 2646 2718 2719 2755
2683 6 2610 2646 2647 2719 2720 2756
2684 6 2611 2647 2648 2720 2721 2757
2685 6 2612 2648 2649 2721 2722 2758
2686 6 2613 2649 2650 2722 2723 2759
2687 6 2614 2650 2651 2723 2724 2760
2688 6 2615 2651 2652 2724 2725 2761
2689 6 2616 2652 2653 2725 2726 2762
2690 6 2617 2653 2654 2726 2727 2763
2691 6 2618 2654 2655 2727 2728 2764
2692 6 2619 2655 2656 2728 2729 2765
2693 6 2620 2656 2657 2729 2730 2766
2694 6 2621 2657 2658 2730 2731 2767
2695 6 2622 2658 2659 2731 2732 2768
2696 6 2623 2659 2660 2732 2733 2769
2697 6 2624 2660 2661 2733 2734 2770
2698 6 2625 2661 2662 2734 2735 2771
2699 6 2626 2662 2663 2735 2736 2772
2700 6 2627 2663 2664 2736 2737 2773
2701 6 2628 2664 2665 2737 2738 2774
2702 6 2629 2665 2666 2738 2739 2775
2703 6 2630 2666 2667 2739 2740 2776
2704 6 2631 2667 2668 2740 2741 2777
2705 6 2632 2668 2669 2741 2742 2778
2706 6 2633 2669 2670 2742 2743 2779
2707 6 2634 2670 2671 2743 2744 2780
2708 6 2635 2671 2672 2744 2745 2781
2709 6 2636 2672 2673 2745 2746 2782
2710 6 2637 2673 2674 2746 2747 2783
2711 6 2638 2674 2675 2747 2748 2784
2712 6 2639 2675 2676 2748 2749 2785
2713 6 2640 2676 2677 2749 2750 2786
2714 6 2641 2677 2678 2750 2751 2787
2715 6 2642 2678 2679 2751 2752 2788
2716 4 2643 2679 2752 2789
2717 6 2644 2680 2681 2753 2754 2791
2718 6 2645 2681 2682 2754 2755 2792
2719 6 2646 2682 2683 2755 2756 2793
2720 6 2647 2683 2684 2756 2757 2794
2721 6 2648 2684 2685 2757 2758 2795
2722 6 2649 2685 2686 2758 2759 2796
2723 6 2650 2686 2687 2759 2760 2797
2724 6 2651 2687 2688 2760 2761 2798
2725 6 2652 2688 2689 2761 2762 2799
2726 6 2653 2689 2690 2762 2763 2800
2727 6 2654 2690 2691 2763 2764 2801
2728 6 2655 2691 2692 2764 2765 2802
2729 6 2656 2692 2693 2765 2766 2803
2730 6 2657 2693 2694 2766 2767 2804
2731 6 2658 2694 2695 2767 2768 2805
2732 6 2659 2695 2696 2768 2769 2806
2733 6 2660 2696 2697 2769 2770 2807
2734 6 2661 2697 2698 2770 2771 2808
2735 6 2662 2698 2699 2771 2772 2809
2736 6 2663 2699 2700 2772 2773 2810
2737 6 2664 2700 2701 2773 2774 2811
2738 6 2665 2701 2702 2774 2775 2812
2739 6 2666 2702 2703 2775 2776 2813
2740 6 2667 2703 2704 2776 2777 2814
2741 6 2668 2704 2705 2777 2778 2815
2742 6 2669 2705 2706 2778 2779 2816
2743 6 2670 2706 2707 2779 2780 2817
2744 6 2671 2707 2708 2780 2781 2818
2745 6 2672 2708 2709 2781 2782 2819
2746 6 2673 2709 2710 2782 2783 2820
2747 6 2674 2710 2711 2783 2784 2821
2748 6 2675 2711 2712 2784 2785 2822
2749 6 2676 2712 2713 2785 2786 2823
2750 6 2677 2713 2714 2786 2787 2824
2751 6 2678 2714 2715 2787 2788 2825
2752 6 2679 2715 2716 2788 2789 2826
2753 5 2680 2717 2790 2791 2827
2754 6 2681 2717 2718 2791 2792 2828
2755 6 2682 2718 2719 2792 2793 2829
2756 6 2683 2719 2720 2793 2794 2830
2757 6 2684 2720 2721 2794 2795 2831
2758 6 2685 2721 2722 2795 2796 2832
2759 6 2686 2722 2723 2796 2797 2833
2760 6 2687 2723 2724 2797 2798 2834
2761 6 2688 2724 2725 2798 2799 2835
2762 6 2689 2725 2726 2799 2800 2836
2763 6 2690 2726 2727 2800 2801 2837
2764 6 2691 2727 2728 2801 2802 2838
2765 6 2692 2728 2729 2802 2803 2839
2766 6 2693 2729 2730 2803 2804 2840
2767 6 2694 2730 2731 2804 2805 2841
2768 6 2695 2731 2732 2805 2806 2842
2769 6 2696 2732 2733 2806 2807 2843
2770 6 2697 2733 2734 2807 2808 2844
2771 6 2698 2734 2735 2808 2809 2845
2772 6 2699 2735 2736 2809 2810 2846
2773 6 2700 2736 2737 2810 2811 2847
2774 6 2701 2737 2738 2811 2812 2848
2775 6 2702 2738 2739 2812 2813 2849
2776 6 2703 2739 2740 2813 2814 2850
2777 6 2704 2740 2741 2814 2815 2851
2778 6 2705 2741 2742 2815 2816 2852
2779 6 2706 2742 2743 2816 2817 2853
2780 6 2707 2743 2744 2817 2818 2854
2781 6 2708 2744 2745 2818 2819 2855
2782 6 2709 2745 2746 2819 2820 2856
2783 6 2710 2746 2747 2820 2821 2857
2784 6 2711 2747 2748 2821 2822 2858
2785 6 2712 2748 2749 2822 2823 2859
2786 6 2713 2749 2750 2823 2824 2860
2787 6 2714 2750 2751 2824 2825 2861
2788 6 2715 2751 2752 2825 2826 2862
2789 4 2716 2752 2826 2863
2790 2 2753 2827
2791 6 2717 2753 2754 2827 2828 2864
2792 6 2718 2754 2755 2828 2829 2865
2793 6 2719 2755 2756 2829 2830 2866
2794 6 2720 2756 2757 2830 2831 2867
2795 6 2721 2757 2758 2831 2832 2868
2796 6 2722 2758 2759 2832 2833 2869
2797 6 2723 2759 2760 2833 2834 2870
2798 6 2724 2760 2761 2834 2835 2871
2799 6 2725 2761 2762 2835 2836 2872
2800 6 2726 2762 2763 2836 2837 2873
2801 6 2727 2763 2764 2837 2838 2874
2802 6 2728 2764 2765 2838 2839 2875
2803 6 2729 2765 2766 2839 2840 2876
2804 6 2730 2766 2767 2840 2841 2877
2805 6 2731 2767 2768 2841 2842 2878
2806 6 2732 2768 2769 2842 2843 2879
2807 6 2733 2769 2770 2843 2844 2880
2808 6 2734 2770 2771 2844 2845 2881
2809 6 2735 2771 2772 2845 2846 2882
2810 6 2736 2772 2773 2846 2847 2883
2811 6 2737 2773 2774 2847 2848 2884
2812 6 2738 2774 2775 2848 2849 2885
2813 6 2739 2775 2776 2849 2850 2886
2814 6 2740 2776 2777 2850 2851 2887
2815 6 2741 2777 2778 2851 2852 2888
2816 6 2742 2778 2779 2852 2853 2889
2817 6 2743 2779 2780 2853 2854 2890
2818 6 2744 2780 2781 2854 2855 2891
2819 6 2745 2781 2782 2855 2856 2892
2820 6 2746 2782 2783 2856 2857 2893
2821 6 2747 2783 2784 2857 2858 2894
2822 6 2748 2784 2785 2858 2859 2895
2823 6 2749 2785 2786 2859 2860 2896
2824 6 2750 2786 2787 2860 2861 2897
2825 6 2751 2787 2788 2861 2862 2898
2826 6 2752 2788 2789 2862 2863 2899
2827 4 2753 2790 2791 2864
2828 6 2754 2791 2792 2864 2865 2900
2829 6 2755 2792 2793 2865 2866 2901
2830 6 2756 2793 2794 2866 2867 2902
2831 6 2757 2794 2795 2867 2868 2903
2832 6 2758 2795 2796 2868 2869 2904
2833 6 2759 2796 2797 2869 2870 2905
2834 6 2760 2797 2798 2870 2871 2906
2835 6 2761 2798 2799 2871 2872 2907
2836 6 2762 2799 2800 2872 2873 2908
2837 6 2763 2800 2801 2873 2874 2909
2838 6 2764 2801 2802 2874 2875 2910
2839 6 2765 2802 2803 2875 2876 2911
2840 6 2766 2803 2804 2876 2877 2912
2841 6 2767 2804 2805 2877 2878 2913
2842 6 2768 2805 2806 2878 2879 2914
2843 6 2769 2806 2807 2879 2880 2915
2844 6 2770 2807 2808 2880 2881 2916
2845 6 2771 2808 2809 2881 2882 2917
2846 6 2772 2809 2810 2882 2883 2918
2847 6 2773 2810 2811 2883 2884 2919
2848 6 2774 2811 2812 2884 2885 2920
2849 6 2775 2812 2813 2885 2886 2921
2850 6 2776 2813 2814 2886 2887 2922
2851 6 2777 2814 2815 2887 2888 2923
2852 6 2778 2815 2816 2888 2889 2924
2853 6 2779 2816 2817 2889 2890 2925
2854 6 2780 2817 2818 2890 2891 2926
2855 6 2781 2818 2819 2891 2892 2927
2856 6 2782 2819 2820 2892 2893 2928
2857 6 2783 2820 2821 2893 2894 2929
2858 6 2784 2821 2822 2894 2895 2930
2859 6 2785 2822 2823 2895 2896 2931
2860 6 2786 2823 2824 2896 2897 2932
2861 6 2787 2824 2825 2897 2898 2933
2862 6 2788 2825 2826 2898 2899 2934
2863 4 2789 2826 2899 2935
2864 4 2791 2827 2828 2900
2865 6 2792 2828 2829 2900 2901 2936
2866 6 2793 2829 2830 2901 2902 2937
2867 6 2794 2830 2831 2902 2903 2938
2868 6 2795 2831 2832 2903 2904 2939
2869 6 2796 2832 2833 2904 2905 2940
2870 6 2797 2833 2834 2905 2906 2941
2871 6 2798 2834 2835 2906 2907 2942
2872 6 2799 2835 2836 2907 2908 2943
2873 6 2800 2836 2837 2908 2909 2944
2874 6 2801 2837 2838 2909 2910 2945
2875 6 2802 2838 2839 2910 2911 2946
2876 6 2803 2839 2840 2911 2912 2947
2877 6 2804 2840 2841 2912 2913 2948
2878 6 2805 2841 2842 2913 2914 2949
2879 6 2806 2842 2843 2914 2915 2950
2880 6 2807 2843 2844 2915 2916 2951
2881 6 2808 2844 2845 2916 2917 2952
2882 6 2809 2845 2846 2917 2918 2953
2883 6 2810 2846 2847 2918 2919 2954
2884 6 2811 2847 2848 2919 2920 2955
2885 6 2812 2848 2849 2920 2921 2956
2886 6 2813 2849 2850 2921 2922 2957
2887 6 2814 2850 2851 2922 2923 2958
2888 6 2815 2851 2852 2923 2924 2959
2889 6 2816 2852 2853 2924 2925 2960
2890 6 2817 2853 2854 2925 2926 2961
2891 6 2818 2854 2855 2926 2927 2962
2892 6 2819 2855 2856 2927 2928 2963
2893 6 2820 2856 2857 2928 2929 2964
2894 6 2821 2857 2858 2929 2930 2965
2895 6 2822 2858 2859 2930 2931 2966
2896 6 2823 2859 2860 2931 2932 2967
2897 6 2824 2860 2861 2932 2933 2968
2898 6 2825 2861 2862 2933 2934 2969
2899 6 2826 2862 2863 2934 2935 2970
2900 5 2828 2864 2865 2936 2971
2901 6 2829 2865 2866 2936 2937 2972
2902 6 2830 2866 2867 2937 2938 2973
2903 6 2831 2867 2868 2938 2939 2974
2904 6 2832 2868 2869 2939 2940 2975
2905 6 2833 2869 2870 2940 2941 2976
2906 6 2834 2870 2871 2941 2942 2977
2907 6 2835 2871 2872 2942 2943 2978
2908 6 2836 2872 2873 2943 2944 2979
2909 6 2837 2873 2874 2944 2945 2980
2910 6 2838 2874 2875 2945 2946 2981
2911 6 2839 2875 2876 2946 2947 2982
2912 6 2840 2876 2877 2947 2948 2983
2913 6 2841 2877 2878 2948 2949 2984
2914 6 2842 2878 2879 2949 2950 2985
2915 6 2843 2879 2880 2950 2951 2986
2916 6 2844 2880 2881 2951 2952 2987
2917 6 2845 2881 2882 2952 2953 2988
2918 6 2846 2882 2883 2953 2954 2989
2919 6 2847 2883 2884 2954 2955 2990
2920 6 2848 2884 2885 2955 2956 2991
2921 6 2849 2885 2886 2956 2957 2992
2922 6 2850 2886 2887 2957 2958 2993
2923 6 2851 2887 2888 2958 2959 2994
2924 6 2852 2888 2889 2959 2960 2995
2925 6 2853 2889 2890 2960 2961 2996
2926 6 2854 2890 2891 2961 2962 2997
2927 6 2855 2891 2892 2962 2963 2998
2928 6 2856 2892 2893 2963 2964 2999
2929 6 2857 2893 2894 2964 2965 3000
2930 6 2858 2894 2895 2965 2966 3001
2931 6 2859 2895 2896 2966 2967 3002
2932 6 2860 2896 2897 2967 2968 3003
2933 6 2861 2897 2898 2968 2969 3004
2934 6 2862 2898 2899 2969 2970 3005
2935 4 2863 2899 2970 3006
2936 6 2865 2900 2901 2971 2972 3007
2937 6 2866 2901 2902 2972 2973 3008
2938 6 2867 2902 2903 2973 2974 3009
2939 6 2868 2903 2904 2974 2975 3010
2940 6 2869 2904 2905 2975 2976 3011
2941 6 2870 2905 2906 2976 2977 3012
2942 6 2871 2906 2907 2977 2978 3013
2943 6 2872 2907 2908 2978 2979 3014
2944 6 2873 2908 2909 2979 2980 3015
2945 6 2874 2909 2910 2980 2981 3016
2946 6 2875 2910 2911 2981 2982 3017
2947 6 2876 2911 2912 2982 2983 3018
2948 6 2877 2912 2913 2983 2984 3019
2949 6 2878 2913 2914 2984 2985 3020
2950 6 2879 2914 2915 2985 2986 3021
2951 6 2880 2915 2916 2986 2987 3022
2952 6 2881 2916 2917 2987 2988 3023
2953 6 2882 2917 2918 2988 2989 3024
2954 6 2883 2918 2919 2989 2990 3025
2955 6 2884 2919 2920 2990 2991 3026
2956 6 2885 2920 2921 2991 2992 3027
2957 6 2886 2921 2922 2992 2993 3028
2958 6 2887 2922 2923 2993 2994 3029
2959 6 2888 2923 2924 2994 2995 3030
2960 6 2889 2924 2925 2995 2996 3031
2961 6 2890 2925 2926 2996 2997 3032
2962 6 2891 2926 2927 2997 2998 3033
2963 6 2892 2927 2928 2998 2999 3034
2964 6 2893 2928 2929 2999 3000 3035
2965 6 2894 2929 2930 3000 3001 3036
2966 6 2895 2930 2931 3001 3002 3037
2967 6 2896 2931 2932 3002 3003 3038
2968 6 2897 2932 2933 3003 3004 3039
2969 6 2898 2933 2934 3004 3005 3040
2970 6 2899 2934 2935 3005 3006 3041
2971 4 2900 2936 3007 3042
2972 6 2901 2936 2937 3007 3008 3043
2973 6 2902 2937 2938 3008 3009 3044
2974 6 2903 2938 2939 3009 3010 3045
2975 6 2904 2939 2940 3010 3011 3046
2976 6 2905 2940 2941 3011 3012 3047
2977 6 2906 2941 2942 3012 3013 3048
2978 6 2907 2942 2943 3013 3014 3049
2979 6 2908 2943 2944 3014 3015 3050
2980 6 2909 2944 2945 3015 3016 3051
2981 6 2910 2945 2946 3016 3017 3052
2982 6 2911 2946 2947 3017 3018 3053
2983 6 2912 2947 2948 3018 3019 3054
2984 6 2913 2948 2949 3019 3020 3055
2985 6 2914 2949 2950 3020 3021 3056
2986 6 2915 2950 2951 3021 3022 3057
2987 6 2916 2951 2952 3022 3023 3058
2988 6 2917 2952 2953 3023 3024 3059
2989 6 2918 2953 2954 3024 3025 3060
2990 6 2919 2954 2955 3025 3026 3061
2991 6 2920 2955 2956 3026 3027 3062
2992 6 2921 2956 2957 3027 3028 3063
2993 6 2922 2957 2958 3028 3029 3064
2994 6 2923 2958 2959 3029 3030 3065
2995 6 2924 2959 2960 3030 3031 3066
2996 6 2925 2960 2961 3031 3032 3067
2997 6 2926 2961 2962 3032 3033 3068
2998 6 2927 2962 2963 3033 3034 3069
2999 6 2928 2963 2964 3034 3035 3070
3000 6 2929 2964 2965 3035 3036 3071
3001 6 2930 2965 2966 3036 3037 3072
3002 6 2931 2966 2967 3037 3038 3073
3003 6 2932 2967 2968 3038 3039 3074
3004 6 2933 2968 2969 3039 3040 3075
3005 6 2934 2969 2970 3040 3041 3076
3006 4 2935 2970 3041 3077
3007 6 2936 2971 2972 3042 3043 3078
3008 6 2937 2972 2973 3043 3044 3079
3009 6 2938 2973 2974 3044 3045 3080
3010 6 2939 2974 2975 3045 3046 3081
3011 6 2940 2975 2976 3046 3047 3082
3012 6 2941 2976 2977 3047 3048 3083
3013 6 2942 2977 2978 3048 3049 3084
3014 6 2943 2978 2979 3049 3050 3085
3015 6 2944 2979 2980 3050 3051 3086
3016 6 2945 2980 2981 3051 3052 3087
3017 6 2946 2981 2982 3052 3053 3088
3018 6 2947 2982 2983 3053 3054 3089
3019 6 2948 2983 2984 3054 3055 3090
3020 6 2949 2984 2985 3055 3056 3091
3021 6 2950 2985 2986 3056 3057 3092
3022 6 2951 2986 2987 3057 3058 3093
3023 6 2952 2987 2988 3058 3059 3094
3024 6 2953 2988 2989 3059 3060 3095
3025 6 2954 2989 2990 3060 3061 3096
3026 6 2955 2990 2991 3061 3062 3097
3027 6 2956 2991 2992 3062 3063 3098
3028 6 2957 2992 2993 3063 3064 3099
3029 6 2958 2993 2994 3064 3065 3100
3030 6 2959 2994 2995 3065 3066 3101
3031 6 2960 2995 2996 3066 3067 3102
3032 6 2961 2996 2997 3067 3068 3103
3033 6 2962 2997 2998 3068 3069 3104
3034 6 2963 2998 2999 3069 3070 3105
3035 6 2964 2999 3000 3070 3071 3106
3036 6 2965 3000 3001 3071 3072 3107
3037 6 2966 3001 3002 3072 3073 3108
3038 6 2967 3002 3003 3073 3074 3109
3039 6 2968 3003 3004 3074 3075 3110
3040 6 2969 3004 3005 3075 3076 3111
3041 6 2970 3005 3006 3076 3077 3112
3042 4 2971 3007 3078 3113
3043 6 2972 3007 3008 3078 3079 3114
3044 6 2973 3008 3009 3079 3080 3115
3045 6 2974 3009 3010 3080 3081 3116
3046 6 2975 3010 3011 3081 3082 3117
3047 6 2976 3011 3012 3082 3083 3118
3048 6 2977 3012 3013 3083 3084 3119
3049 6 2978 3013 3014 3084 3085 3120
3050 6 2979 3014 3015 3085 3086 3121
3051 6 2980 3015 3016 3086 3087 3122
3052 6 2981 3016 3017 3087 3088 3123
3053 6 2982 3017 3018 3088 3089 3124
3054 6 2983 3018 3019 3089 3090 3125
3055 6 2984 3019 3020 3090 3091 3126
3056 6 2985 3020 3021 3091 3092 3127
3057 6 2986 3021 3022 3092 3093 3128
3058 6 2987 3022 3023 3093 3094 3129
3059 6 2988 3023 3024 3094 3095 3130
3060 6 2989 3024 3025 3095 3096 3131
3061 6 2990 3025 3026 3096 3097 3132
3062 6 2991 3026 3027 3097 3098 3133
3063 6 2992 3027 3028 3098 3099 3134
3064 6 2993 3028 3029 3099 3100 3135
3065 6 2994 3029 3030 3100 3101 3136
3066 6 2995 3030 3031 3101 3102 3137
3067 6 2996 3031 3032 3102 3103 3138
3068 6 2997 3032 3033 3103 3104 3139
3069 6 2998 3033 3034 3104 3105 3140
3070 6 2999 3034 3035 3105 3106 3141
3071 6 3000 3035 3036 3106 3107 3142
3072 6 3001 3036 3037 3107 3108 3143
3073 6 3002 3037 3038 3108 3109 3144
3074 6 3003 3038 3039 3109 3110 3145
3075 6 3004 3039 3040 3110 3111 3146
3076 6 3005 3040 3041 3111 3112 3147
3077 4 3006 3041 3112 3148
3078 6 3007 3042 3043 3113 3114 3150
3079 6 3008 3043 3044 3114 3115 3151
3080 6 3009 3044 3045 3115 3116 3152
3081 6 3010 3045 3046 3116 3117 3153
3082 6 3011 3046 3047 3117 3118 3154
3083 6 3012 3047 3048 3118 3119 3155
3084 6 3013 3048 3049 3119 3120 3156
3085 6 3014 3049 3050 3120 3121 3157
3086 6 3015 3050 3051 3121 3122 3158
3087 6 3016 3051 3052 3122 3123 3159
3088 6 3017 3052 3053 3123 3124 3160
3089 6 3018 3053 3054 3124 3125 3161
3090 6 3019 3054 3055 3125 3126 3162
3091 6 3020 3055 3056 3126 3127 3163
3092 6 3021 3056 3057 3127 3128 3164
3093 6 3022 3057 3058 3128 3129 3165
3094 6 3023 3058 3059 3129 3130 3166
3095 6 3024 3059 3060 3130 3131 3167
3096 6 3025 3060 3061 3131 3132 3168
3097 6 3026 3061 3062 3132 3133 3169
3098 6 3027 3062 3063 3133 3134 3170
3099 6 3028 3063 3064 3134 3135 3171
3100 6 3029 3064 3065 3135 3136 3172
3101 6 3030 3065 3066 3136 3137 3173
3102 6 3031 3066 3067 3137 3138 3174
3103 6 3032 3067 3068 3138 3139 3175
3104 6 3033 3068 3069 3139 3140 3176
3105 6 3034 3069 3070 3140 3141 3177
3106 6 3035 3070 3071 3141 3142 3178
3107 6 3036 3071 3072 3142 3143 3179
3108 6 3037 3072 3073 3143 3144 3180
3109 6 3038 3073 3074 3144 3145 3181
3110 6 3039 3074 3075 3145 3146 3182
3111 6 3040 3075 3076 3146 3147 3183
3112 6 3041 3076 3077 3147 3148 3184
3113 5 3042 3078 3149 3150 3186
3114 6 3043 3078 3079 3150 3151 3187
3115 6 3044 3079 3080 3151 3152 3188
3116 6 3045 3080 3081 3152 3153 3189
3117 6 3046 3081 3082 3153 3154 3190
3118 6 3047 3082 3083 3154 3155 3191
3119 6 3048 3083 3084 3155 3156 3192
3120 6 3049 3084 3085 3156 3157 3193
3121 6 3050 3085 3086 3157 3158 3194
3122 6 3051 3086 3087 3158 3159 3195
3123 6 3052 3087 3088 3159 3160 3196
3124 6 3053 3088 3089 3160 3161 3197
3125 6 3054 3089 3090 3161 3162 3198
3126 6 3055 3090 3091 3162 3163 3199
3127 6 3056 3091 3092 3163 3164 3200
3128 6 3057 3092 3093 3164 3165 3201
3129 6 3058 3093 3094 3165 3166 3202
3130 6 3059 3094 3095 3166 3167 3203
3131 6 3060 3095 3096 3167 3168 3204
3132 6 3061 3096 3097 3168 3169 3205
3133 6 3062 3097 3098 3169 3170 3206
3134 6 3063 3098 3099 3170 3171 3207
3135 6 3064 3099 3100 3171 3172 3208
3136 6 3065 3100 3101 3172 3173 3209
3137 6 3066 3101 3102 3173 3174 3210
3138 6 3067 3102 3103 3174 3175 3211
3139 6 3068 3103 3104 3175 3176 3212
3140 6 3069 3104 3105 3176 3177 3213
3141 6 3070 3105 3106 3177 3178 3214
3142 6 3071 3106 3107 3178 3179 3215
3143 6 3072 3107 3108 3179 3180 3216
3144 6 3073 3108 3109 3180 3181 3217
3145 6 3074 3109 3110 3181 3182 3218
3146 6 3075 3110 3111 3182 3183 3219
3147 6 3076 3111 3112 3183 3184 3220
3148 4 3077 3112 3184 3221
3149 4 3113 3185 3186 3222
3150 6 3078 3113 3114 3186 3187 3223
3151 6 3079 3114 3115 3187 3188 3224
3152 6 3080 3115 3116 3188 3189 3225
3153 6 3081 3116 3117 3189 3190 3226
3154 6 3082 3117 3118 3190 3191 3227
3155 6 3083 3118 3119 3191 3192 3228
3156 6 3084 3119 3120 3192 3193 3229
3157 6 3085 3120 3121 3193 3194 3230
3158 6 3086 3121 3122 3194 3195 3231
3159 6 3087 3122 3123 3195 3196 3232
3160 6 3088 3123 3124 3196 3197 3233
3161 6 3089 3124 3125 3197 3198 3234
3162 6 3090 3125 3126 3198 3199 3235
3163 6 3091 3126 3127 3199 3200 3236
3164 6 3092 3127 3128 3200 3201 3237
3165 6 3093 3128 3129 3201 3202 3238
3166 6 3094 3129 3130 3202 3203 3239
3167 6 3095 3130 3131 3203 3204 3240
3168 6 3096 3131 3132 3204 3205 3241
3169 6 3097 3132 3133 3205 3206 3242
3170 6 3098 3133 3134 3206 3207 3243
3171 6 3099 3134 3135 3207 3208 3244
3172 6 3100 3135 3136 3208 3209 3245
3173 6 3101 3136 3137 3209 3210 3246
3174 6 3102 3137 3138 3210 3211 3247
3175 6 3103 3138 3139 3211 3212 3248
3176 6 3104 3139 3140 3212 3213 3249
3177 6 3105 3140 3141 3213 3214 3250
3178 6 3106 3141 3142 3214 3215 3251
3179 6 3107 3142 3143 3215 3216 3252
3180 6 3108 3143 3144 3216 3217 3253
3181 6 3109 3144 3145 3217 3218 3254
3182 6 3110 3145 3146 3218 3219 3255
3183 6 3111 3146 3147 3219 3220 3256
3184 6 3112 3147 3148 3220 3221 3257
3185 3 3149 3222 3258
3186 6 3113 3149 3150 3222 3223 3259
3187 6 3114 3150 3151 3223 3224 3260
3188 6 3115 3151 3152 3224 3225 3261
3189 6 3116 3152 3153 3225 3226 3262
3190 6 3117 3153 3154 3226 3227 3263
3191 6 3118 3154 3155 3227 3228 3264
3192 6 3119 3155 3156 3228 3229 3265
3193 6 3120 3156 3157 3229 3230 3266
3194 6 3121 3157 3158 3230 3231 3267
3195 6 3122 3158 3159 3231 3232 3268
3196 6 3123 3159 3160 3232 3233 3269
3197 6 3124 3160 3161 3233 3234 3270
3198 6 3125 3161 3162 3234 3235 3271
3199 6 3126 3162 3163 3235 3236 3272
3200 6 3127 3163 3164 3236 3237 3273
3201 6 3128 3164 3165 3237 3238 3274
3202 6 3129 3165 3166 3238 3239 3275
3203 6 3130 3166 3167 3239 3240 3276
3204 6 3131 3167 3168 3240 3241 3277
3205 6 3132 3168 3169 3241 3242 3278
3206 6 3133 3169 3170 3242 3243 3279
3207 6 3134 3170 3171 3243 3244 3280
3208 6 3135 3171 3172 3244 3245 3281
3209 6 3136 3172 3173 3245 3246 3282
3210 6 3137 3173 3174 3246 3247 3283
3211 6 3138 3174 3175 3247 3248 3284
3212 6 3139 3175 3176 3248 3249 3285
3213 6 3140 3176 3177 3249 3250 3286
3214 6 3141 3177 3178 3250 3251 3287
3215 6 3142 3178 3179 3251 3252 3288
3216 6 3143 3179 3180 3252 3253 3289
3217 6 3144 3180 3181 3253 3254 3290
3218 6 3145 3181 3182 3254 3255 3291
3219 6 3146 3182 3183 3255 3256 3292
3220 6 3147 3183 3184 3256 3257 3293
3221 4 3148 3184 3257 3294
3222 6 3149 3185 3186 3258 3259 3297
3223 6 3150 3186 3187 3259 3260 3298
3224 6 3151 3187 3188 3260 3261 3299
3225 6 3152 3188 3189 3261 3262 3300
3226 6 3153 3189 3190 3262 3263 3301
3227 6 3154 3190 3191 3263 3264 3302
3228 6 3155 3191 3192 3264 3265 3303
3229 6 3156 3192 3193 3265 3266 3304
3230 6 3157 3193 3194 3266 3267 3305
3231 6 3158 3194 3195 3267 3268 3306
3232 6 3159 3195 3196 3268 3269 3307
3233 6 3160 3196 3197 3269 3270 3308
3234 6 3161 3197 3198 3270 3271 3309
3235 6 3162 3198 3199 3271 3272 3310
3236 6 3163 3199 3200 3272 3273 3311
3237 6 3164 3200 3201 3273 3274 3312
3238 6 3165 3201 3202 3274 3275 3313
3239 6 3166 3202 3203 3275 3276 3314
3240 6 3167 3203 3204 3276 3277 3315
3241 6 3168 3204 3205 3277 3278 3316
3242 6 3169 3205 3206 3278 3279 3317
3243 6 3170 3206 3207 3279 3280 3318
3244 6 3171 3207 3208 3280 3281 3319
3245 6 3172 3208 3209 3281 3282 3320
3246 6 3173 3209 3210 3282 3283 3321
3247 6 3174 3210 3211 3283 3284 3322
3248 6 3175 3211 3212 3284 3285 3323
3249 6 3176 3212 3213 3285 3286 3324
3250 6 3177 3213 3214 3286 3287 3325
3251 6 3178 3214 3215 3287 3288 3326
3252 6 3179 3215 3216 3288 3289 3327
3253 6 3180 3216 3217 3289 3290 3328
3254 6 3181 3217 3218 3290 3291 3329
3255 6 3182 3218 3219 3291 3292 3330
3256 6 3183 3219 3220 3292 3293 3331
3257 6 3184 3220 3221 3293 3294 3332
3258 5 3185 3222 3296 3297 3335
3259 6 3186 3222 3223 3297 3298 3336
3260 6 3187 3223 3224 3298 3299 3337
3261 6 3188 3224 3225 3299 3300 3338
3262 6 3189 3225 3226 3300 3301 3339
3263 6 3190 3226 3227 3301 3302 3340
3264 6 3191 3227 3228 3302 3303 3341
3265 6 3192 3228 3229 3303 3304 3342
3266 6 3193 3229 3230 3304 3305 3343
3267 6 3194 3230 3231 3305 3306 3344
3268 6 3195 3231 3232 3306 3307 3345
3269 6 3196 3232 3233 3307 3308 3346
3270 6 3197 3233 3234 3308 3309 3347
3271 6 3198 3234 3235 3309 3310 3348
3272 6 3199 3235 3236 3310 3311 3349
3273 6 3200 3236 3237 3311 3312 3350
3274 6 3201 3237 3238 3312 3313 3351
3275 6 3202 3238 3239 3313 3314 3352
3276 6 3203 3239 3240 3314 3315 3353
3277 6 3204 3240 3241 3315 3316 3354
3278 6 3205 3241 3242 3316 3317 3355
3279 6 3206 3242 3243 3317 3318 3356
3280 6 3207 3243 3244 3318 3319 3357
3281 6 3208 3244 3245 3319 3320 3358
3282 6 3209 3245 3246 3320 3321 3359
3283 6 3210 3246 3247 3321 3322 3360
3284 6 3211 3247 3248 3322 3323 3361
3285 6 3212 3248 3249 3323 3324 3362
3286 6 3213 3249 3250 3324 3325 3363
3287 6 3214 3250 3251 3325 3326 3364
3288 6 3215 3251 3252 3326 3327 3365
3289 6 3216 3252 3253 3327 3328 3366
3290 6 3217 3253 3254 3328 3329 3367
3291 6 3218 3254 3255 3329 3330 3368
3292 6 3219 3255 3256 3330 3331 3369
3293 6 3220 3256 3257 3331 3332 3370
3294 3 3221 3257 3332
3295 3 3333 3334 3371
3296 4 3258 3334 3335 3372
3297 6 3222 3258 3259 3335 3336 3373
3298 6 3223 3259 3260 3336 3337 3374
3299 6 3224 3260 3261 3337 3338 3375
3300 6 3225 3261 3262 3338 3339 3376
3301 6 3226 3262 3263 3339 3340 3377
3302 6 3227 3263 3264 3340 3341 3378
3303 6 3228 3264 3265 3341 3342 3379
3304 6 3229 3265 3266 3342 3343 3380
3305 6 3230 3266 3267 3343 3344 3381
3306 6 3231 3267 3268 3344 3345 3382
3307 6 3232 3268 3269 3345 3346 3383
3308 6 3233 3269 3270 3346 3347 3384
3309 6 3234 3270 3271 3347 3348 3385
3310 6 3235 3271 3272 3348 3349 3386
3311 6 3236 3272 3273 3349 3350 3387
3312 6 3237 3273 3274 3350 3351 3388
3313 6 3238 3274 3275 3351 3352 3389
3314 6 3239 3275 3276 3352 3353 3390
3315 6 3240 3276 3277 3353 3354 3391
3316 6 3241 3277 3278 3354 3355 3392
3317 6 3242 3278 3279 3355 3356 3393
3318 6 3243 3279 3280 3356 3357 3394
3319 6 3244 3280 3281 3357 3358 3395
3320 6 3245 3281 3282 3358 3359 3396
3321 6 3246 3282 3283 3359 3360 3397
3322 6 3247 3283 3284 3360 3361 3398
3323 6 3248 3284 3285 3361 3362 3399
3324 6 3249 3285 3286 3362 3363 3400
3325 6 3250 3286 3287 3363 3364 3401
3326 6 3251 3287 3288 3364 3365 3402
3327 6 3252 3288 3289 3365 3366 3403
3328 6 3253 3289 3290 3366 3367 3404
3329 6 3254 3290 3291 3367 3368 3405
3330 6 3255 3291 3292 3368 3369 3406
3331 6 3256 3292 3293 3369 3370 3407
3332 5 3257 3293 3294 3370 3408
3333 3 3295 3371 3409
3334 5 3295 3296 3371 3372 3410
3335 6 3258 3296 3297 3372 3373 3411
3336 6 3259 3297 3298 3373 3374 3412
3337 6 3260 3298 3299 3374 3375 3413
3338 6 3261 3299 3300 3375 3376 3414
3339 6 3262 3300 3301 3376 3377 3415
3340 6 3263 3301 3302 3377 3378 3416
3341 6 3264 3302 3303 3378 3379 3417
3342 6 3265 3303 3304 3379 3380 3418
3343 6 3266 3304 3305 3380 3381 3419
3344 6 3267 3305 3306 3381 3382 3420
3345 6 3268 3306 3307 3382 3383 3421
3346 6 3269 3307 3308 3383 3384 3422
3347 6 3270 3308 3309 3384 3385 3423
3348 6 3271 3309 3310 3385 3386 3424
3349 6 3272 3310 3311 3386 3387 3425
3350 6 3273 3311 3312 3387 3388 3426
3351 6 3274 3312 3313 3388 3389 3427
3352 6 3275 3313 3314 3389 3390 3428
3353 6 3276 3314 3315 3390 3391 3429
3354 6 3277 3315 3316 3391 3392 3430
3355 6 3278 3316 3317 3392 3393 3431
3356 6 3279 3317 3318 3393 3394 3432
3357 6 3280 3318 3319 3394 3395 3433
3358 6 3281 3319 3320 3395 3396 3434
3359 6 3282 3320 3321 3396 3397 3435
3360 6 3283 3321 3322 3397 3398 3436
3361 6 3284 3322 3323 3398 3399 3437
3362 6 3285 3323 3324 3399 3400 3438
3363 6 3286 3324 3325 3400 3401 3439
3364 6 3287 3325 3326 3401 3402 3440
3365 6 3288 3326 3327 3402 3403 3441
3366 6 3289 3327 3328 3403 3404 3442
3367 6 3290 3328 3329 3404 3405 3443
3368 6 3291 3329 3330 3405 3406 3444
3369 6 3292 3330 3331 3406 3407 3445
3370 6 3293 3331 3332 3407 3408 3446
3371 6 3295 3333 3334 3409 3410 3448
3372 6 3296 3334 3335 3410 3411 3449
3373 6 3297 3335 3336 3411 3412 3450
3374 6 3298 3336 3337 3412 3413 3451
3375 6 3299 3337 3338 3413 3414 3452
3376 6 3300 3338 3339 3414 3415 3453
3377 6 3301 3339 3340 3415 3416 3454
3378 6 3302 3340 3341 3416 3417 3455
3379 6 3303 3341 3342 3417 3418 3456
3380 6 3304 3342 3343 3418 3419 3457
3381 6 3305 3343 3344 3419 3420 3458
3382 6 3306 3344 3345 3420 3421 3459
3383 6 3307 3345 3346 3421 3422 3460
3384 6 3308 3346 3347 3422 3423 3461
3385 6 3309 3347 3348 3423 3424 3462
3386 6 3310 3348 3349 3424 3425 3463
3387 6 3311 3349 3350 3425 3426 3464
3388 6 3312 3350 3351 3426 3427 3465
3389 6 3313 3351 3352 3427 3428 3466
3390 6 3314 3352 3353 3428 3429 3467
3391 6 3315 3353 3354 3429 3430 3468
3392 6 3316 3354 3355 3430 3431 3469
3393 6 3317 3355 3356 3431 3432 3470
3394 6 3318 3356 3357 3432 3433 3471
3395 6 3319 3357 3358 3433 3434 3472
3396 6 3320 3358 3359 3434 3435 3473
3397 6 3321 3359 3360 3435 3436 3474
3398 6 3322 3360 3361 3436 3437 3475
3399 6 3323 3361 3362 3437 3438 3476
3400 6 3324 3362 3363 3438 3439 3477
3401 6 3325 3363 3364 3439 3440 3478
3402 6 3326 3364 3365 3440 3441 3479
3403 6 3327 3365 3366 3441 3442 3480
3404 6 3328 3366 3367 3442 3443 3481
3405 6 3329 3367 3368 3443 3444 3482
3406 6 3330 3368 3369 3444 3445 3483
3407 6 3331 3369 3370 3445 3446 3484
3408 4 3332 3370 3446 3485
3409 5 3333 3371 3447 3448 3488
3410 6 3334 3371 3372 3448 3449 3489
3411 6 3335 3372 3373 3449 3450 3490
3412 6 3336 3373 3374 3450 3451 3491
3413 6 3337 3374 3375 3451 3452 3492
3414 6 3338 3375 3376 3452 3453 3493
3415 6 3339 3376 3377 3453 3454 3494
3416 6 3340 3377 3378 3454 3455 3495
3417 6 3341 3378 3379 3455 3456 3496
3418 6 3342 3379 3380 3456 3457 3497
3419 6 3343 3380 3381 3457 3458 3498
3420 6 3344 3381 3382 3458 3459 3499
3421 6 3345 3382 3383 3459 3460 3500
3422 6 3346 3383 3384 3460 3461 3501
3423 6 3347 3384 3385 3461 3462 3502
3424 6 3348 3385 3386 3462 3463 3503
3425 6 3349 3386 3387 3463 3464 3504
3426 6 3350 3387 3388 3464 3465 3505
3427 6 3351 3388 3389 3465 3466 3506
3428 6 3352 3389 3390 3466 3467 3507
3429 6 3353 3390 3391 3467 3468 3508
3430 6 3354 3391 3392 3468 3469 3509
3431 6 3355 3392 3393 3469 3470 3510
3432 6 3356 3393 3394 3470 3471 3511
3433 6 3357 3394 3395 3471 3472 3512
3434 6 3358 3395 3396 3472 3473 3513
3435 6 3359 3396 3397 3473 3474 3514
3436 6 3360 3397 3398 3474 3475 3515
3437 6 3361 3398 3399 3475 3476 3516
3438 6 3362 3399 3400 3476 3477 3517
3439 6 3363 3400 3401 3477 3478 3518
3440 6 3364 3401 3402 3478 3479 3519
3441 6 3365 3402 3403 3479 3480 3520
3442 6 3366 3403 3404 3480 3481 3521
3443 6 3367 3404 3405 3481 3482 3522
3444 6 3368 3405 3406 3482 3483 3523
3445 6 3369 3406 3407 3483 3484 3524
3446 6 3370 3407 3408 3484 3485 3525
3447 4 3409 3487 3488 3528
3448 6 3371 3409 3410 3488 3489 3529
3449 6 3372 3410 3411 3489 3490 3530
3450 6 3373 3411 3412 3490 3491 3531
3451 6 3374 3412 3413 3491 3492 3532
3452 6 3375 3413 3414 3492 3493 3533
3453 6 3376 3414 3415 3493 3494 3534
3454 6 3377 3415 3416 3494 3495 3535
3455 6 3378 3416 3417 3495 3496 3536
3456 6 3379 3417 3418 3496 3497 3537
3457 6 3380 3418 3419 3497 3498 3538
3458 6 3381 3419 3420 3498 3499 3539
3459 6 3382 3420 3421 3499 3500 3540
3460 6 3383 3421 3422 3500 3501 3541
3461 6 3384 3422 3423 3501 3502 3542
3462 6 3385 3423 3424 3502 3503 3543
3463 6 3386 3424 3425 3503 3504 3544
3464 6 3387 3425 3426 3504 3505 3545
3465 6 3388 3426 3427 3505 3506 3546
3466 6 3389 3427 3428 3506 3507 3547
3467 6 3390 3428 3429 3507 3508 3548
3468 6 3391 3429 3430 3508 3509 3549
3469 6 3392 3430 3431 3509 3510 3550
3470 6 3393 3431 3432 3510 3511 3551
3471 6 3394 3432 3433 3511 3512 3552
3472 6 3395 3433 3434 3512 3513 3553
3473 6 3396 3434 3435 3513 3514 3554
3474 6 3397 3435 3436 3514 3515 3555
3475 6 3398 3436 3437 3515 3516 3556
3476 6 3399 3437 3438 3516 3517 3557
3477 6 3400 3438 3439 3517 3518 3558
3478 6 3401 3439 3440 3518 3519 3559
3479 6 3402 3440 3441 3519 3520 3560
3480 6 3403 3441 3442 3520 3521 3561
3481 6 3404 3442 3443 3521 3522 3562
3482 6 3405 3443 3444 3522 3523 3563
3483 6 3406 3444 3445 3523 3524 3564
3484 6 3407 3445 3446 3524 3525 3565
3485 4 3408 3446 3525 3566
3486 3 3526 3527 3568
3487 4 3447 3527 3528 3569
3488 6 3409 3447 3448 3528 3529 3570
3489 6 3410 3448 3449 3529 3530 3571
3490 6 3411 3449 3450 3530 3531 3572
3491 6 3412 3450 3451 3531 3532 3573
3492 6 3413 3451 3452 3532 3533 3574
3493 6 3414 3452 3453 3533 3534 3575
3494 6 3415 3453 3454 3534 3535 3576
3495 6 3416 3454 3455 3535 3536 3577
3496 6 3417 3455 3456 3536 3537 3578
3497 6 3418 3456 3457 3537 3538 3579
3498 6 3419 3457 3458 3538 3539 3580
3499 6 3420 3458 3459 3539 3540 3581
3500 6 3421 3459 3460 3540 3541 3582
3501 6 3422 3460 3461 3541 3542 3583
3502 6 3423 3461 3462 3542 3543 3584
3503 6 3424 3462 3463 3543 3544 3585
3504 6 3425 3463 3464 3544 3545 3586
3505 6 3426 3464 3465 3545 3546 3587
3506 6 3427 3465 3466 3546 3547 3588
3507 6 3428 3466 3467 3547 3548 3589
3508 6 3429 3467 3468 3548 3549 3590
3509 6 3430 3468 3469 3549 3550 3591
3510 6 3431 3469 3470 3550 3551 3592
3511 6 3432 3470 3471 3551 3552 3593
3512 6 3433 3471 3472 3552 3553 3594
3513 6 3434 3472 3473 3553 3554 3595
3514 6 3435 3473 3474 3554 3555 3596
3515 6 3436 3474 3475 3555 3556 3597
3516 6 3437 3475 3476 3556 3557 3598
3517 6 3438 3476 3477 3557 3558 3599
3518 6 3439 3477 3478 3558 3559 3600
3519 6 3440 3478 3479 3559 3560 3601
3520 6 3441 3479 3480 3560 3561 3602
3521 6 3442 3480 3481 3561 3562 3603
3522 6 3443 3481 3482 3562 3563 3604
3523 6 3444 3482 3483 3563 3564 3605
3524 6 3445 3483 3484 3564 3565 3606
3525 6 3446 3484 3485 3565 3566 3607
3526 4 3486 3567 3568 3609
3527 5 3486 3487 3568 3569 3610
3528 6 3447 3487 3488 3569 3570 3611
3529 6 3448 3488 3489 3570 3571 3612
3530 6 3449 3489 3490 3571 3572 3613
3531 6 3450 3490 3491 3572 3573 3614
3532 6 3451 3491 3492 3573 3574 3615
3533 6 3452 3492 3493 3574 3575 3616
3534 6 3453 3493 3494 3575 3576 3617
3535 6 3454 3494 3495 3576 3577 3618
3536 6 3455 3495 3496 3577 3578 3619
3537 6 3456 3496 3497 3578 3579 3620
3538 6 3457 3497 3498 3579 3580 3621
3539 6 3458 3498 3499 3580 3581 3622
3540 6 3459 3499 3500 3581 3582 3623
3541 6 3460 3500 3501 3582 3583 3624
3542 6 3461 3501 3502 3583 3584 3625
3543 6 3462 3502 3503 3584 3585 3626
3544 6 3463 3503 3504 3585 3586 3627
3545 6 3464 3504 3505 3586 3587 3628
3546 6 3465 3505 3506 3587 3588 3629
3547 6 3466 3506 3507 3588 3589 3630
3548 6 3467 3507 3508 3589 3590 3631
3549 6 3468 3508 3509 3590 3591 3632
3550 6 3469 3509 3510 3591 3592 3633
3551 6 3470 3510 3511 3592 3593 3634
3552 6 3471 3511 3512 3593 3594 3635
3553 6 3472 3512 3513 3594 3595 3636
3554 6 3473 3513 3514 3595 3596 3637
3555 6 3474 3514 3515 3596 3597 3638
3556 6 3475 3515 3516 3597 3598 3639
3557 6 3476 3516 3517 3598 3599 3640
3558 6 3477 3517 3518 3599 3600 3641
3559 6 3478 3518 3519 3600 3601 3642
3560 6 3479 3519 3520 3601 3602 3643
3561 6 3480 3520 3521 3602 3603 3644
3562 6 3481 3521 3522 3603 3604 3645
3563 6 3482 3522 3523 3604 3605 3646
3564 6 3483 3523 3524 3605 3606 3647
3565 6 3484 3524 3525 3606 3607 3648
3566 4 3485 3525 3607 3649
3567 4 3526 3608 3609 3650
3568 6 3486 3526 3527 3609 3610 3651
3569 6 3487 3527 3528 3610 3611 3652
3570 6 3488 3528 3529 3611 3612 3653
3571 6 3489 3529 3530 3612 3613 3654
3572 6 3490 3530 3531 3613 3614 3655
3573 6 3491 3531 3532 3614 3615 3656
3574 6 3492 3532 3533 3615 3616 3657
3575 6 3493 3533 3534 3616 3617 3658
3576 6 3494 3534 3535 3617 3618 3659
3577 6 3495 3535 3536 3618 3619 3660
3578 6 3496 3536 3537 3619 3620 3661
3579 6 3497 3537 3538 3620 3621 3662
3580 6 3498 3538 3539 3621 3622 3663
3581 6 3499 3539 3540 3622 3623 3664
3582 6 3500 3540 3541 3623 3624 3665
3583 6 3501 3541 3542 3624 3625 3666
3584 6 3502 3542 3543 3625 3626 3667
3585 6 3503 3543 3544 3626 3627 3668
3586 6 3504 3544 3545 3627 3628 3669
3587 6 3505 3545 3546 3628 3629 3670
3588 6 3506 3546 3547 3629 3630 3671
3589 6 3507 3547 3548 3630 3631 3672
3590 6 3508 3548 3549 3631 3632 3673
3591 6 3509 3549 3550 3632 3633 3674
3592 6 3510 3550 3551 3633 3634 3675
3593 6 3511 3551 3552 3634 3635 3676
3594 6 3512 3552 3553 3635 3636 3677
3595 6 3513 3553 3554 3636 3637 3678
3596 6 3514 3554 3555 3637 3638 3679
3597 6 3515 3555 3556 3638 3639 3680
3598 6 3516 3556 3557 3639 3640 3681
3599 6 3517 3557 3558 3640 3641 3682
3600 6 3518 3558 3559 3641 3642 3683
3601 6 3519 3559 3560 3642 3643 3684
3602 6 3520 3560 3561 3643 3644 3685
3603 6 3521 3561 3562 3644 3645 3686
3604 6 3522 3562 3563 3645 3646 3687
3605 6 3523 3563 3564 3646 3647 3688
3606 6 3524 3564 3565 3647 3648 3689
3607 6 3525 3565 3566 3648 3649 3690
3608 3 3567 3650 3691
3609 6 3526 3567 3568 3650 3651 3692
3610 6 3527 3568 3569 3651 3652 3693
3611 6 3528 3569 3570 3652 3653 3694
3612 6 3529 3570 3571 3653 3654 3695
3613 6 3530 3571 3572 3654 3655 3696
3614 6 3531 3572 3573 3655 3656 3697
3615 6 3532 3573 3574 3656 3657 3698
3616 6 3533 3574 3575 3657 3658 3699
3617 6 3534 3575 3576 3658 3659 3700
3618 6 3535 3576 3577 3659 3660 3701
3619 6 3536 3577 3578 3660 3661 3702
3620 6 3537 3578 3579 3661 3662 3703
3621 6 3538 3579 3580 3662 3663 3704
3622 6 3539 3580 3581 3663 3664 3705
3623 6 3540 3581 3582 3664 3665 3706
3624 6 3541 3582 3583 3665 3666 3707
3625 6 3542 3583 3584 3666 3667 3708
3626 6 3543 3584 3585 3667 3668 3709
3627 6 3544 3585 3586 3668 3669 3710
3628 6 3545 3586 3587 3669 3670 3711
3629 6 3546 3587 3588 3670 3671 3712
3630 6 3547 3588 3589 3671 3672 3713
3631 6 3548 3589 3590 3672 3673 3714
3632 6 3549 3590 3591 3673 3674 3715
3633 6 3550 3591 3592 3674 3675 3716
3634 6 3551 3592 3593 3675 3676 3717
3635 6 3552 3593 3594 3676 3677 3718
3636 6 3553 3594 3595 3677 3678 3719
3637 6 3554 3595 3596 3678 3679 3720
3638 6 3555 3596 3597 3679 3680 3721
3639 6 3556 3597 3598 3680 3681 3722
3640 6 3557 3598 3599 3681 3682 3723
3641 6 3558 3599 3600 3682 3683 3724
3642 6 3559 3600 3601 3683 3684 3725
3643 6 3560 3601 3602 3684 3685 3726
3644 6 3561 3602 3603 3685 3686 3727
3645 6 3562 3603 3604 3686 3687 3728
3646 6 3563 3604 3605 3687 3688 3729
3647 6 3564 3605 3606 3688 3689 3730
3648 6 3565 3606 3607 3689 3690 3731
3649 4 3566 3607 3690 3732
3650 6 3567 3608 3609 3691 3692 3733
3651 6 3568 3609 3610 3692 3693 3734
3652 6 3569 3610 3611 3693 3694 3735
3653 6 3570 3611 3612 3694 3695 3736
3654 6 3571 3612 3613 3695 3696 3737
3655 6 3572 3613 3614 3696 3697 3738
3656 6 3573 3614 3615 3697 3698 3739
3657 6 3574 3615 3616 3698 3699 3740
3658 6 3575 3616 3617 3699 3700 3741
3659 6 3576 3617 3618 3700 3701 3742
3660 6 3577 3618 3619 3701 3702 3743
3661 6 3578 3619 3620 3702 3703 3744
3662 6 3579 3620 3621 3703 3704 3745
3663 6 3580 3621 3622 3704 3705 3746
3664 6 3581 3622 3623 3705 3706 3747
3665 6 3582 3623 3624 3706 3707 3748
3666 6 3583 3624 3625 3707 3708 3749
3667 6 3584 3625 3626 3708 3709 3750
3668 6 3585 3626 3627 3709 3710 3751
3669 6 3586 3627 3628 3710 3711 3752
3670 6 3587 3628 3629 3711 3712 3753
3671 6 3588 3629 3630 3712 3713 3754
3672 6 3589 3630 3631 3713 3714 3755
3673 6 3590 3631 3632 3714 3715 3756
3674 6 3591 3632 3633 3715 3716 3757
3675 6 3592 3633 3634 3716 3717 3758
3676 6 3593 3634 3635 3717 3718 3759
3677 6 3594 3635 3636 3718 3719 3760
3678 6 3595 3636 3637 3719 3720 3761
3679 6 3596 3637 3638 3720 3721 3762
3680 6 3597 3638 3639 3721 3722 3763
3681 6 3598 3639 3640 3722 3723 3764
3682 6 3599 3640 3641 3723 3724 3765
3683 6 3600 3641 3642 3724 3725 3766
3684 6 3601 3642 3643 3725 3726 3767
3685 6 3602 3643 3644 3726 3727 3768
3686 6 3603 3644 3645 3727 3728 3769
3687 6 3604 3645 3646 3728 3729 3770
3688 6 3605 3646 3647 3729 3730 3771
3689 6 3606 3647 3648 3730 3731 3772
3690 6 3607 3648 3649 3731 3732 3773
3691 4 3608 3650 3733 3774
3692 6 3609 3650 3651 3733 3734 3775
3693 6 3610 3651 3652 3734 3735 3776
3694 6 3611 3652 3653 3735 3736 3777
3695 6 3612 3653 3654 3736 3737 3778
3696 6 3613 3654 3655 3737 3738 3779
3697 6 3614 3655 3656 3738 3739 3780
3698 6 3615 3656 3657 3739 3740 3781
3699 6 3616 3657 3658 3740 3741 3782
3700 6 3617 3658 3659 3741 3742 3783
3701 6 3618 3659 3660 3742 3743 3784
3702 6 3619 3660 3661 3743 3744 3785
3703 6 3620 3661 3662 3744 3745 3786
3704 6 3621 3662 3663 3745 3746 3787
3705 6 3622 3663 3664 3746 3747 3788
3706 6 3623 3664 3665 3747 3748 3789
3707 6 3624 3665 3666 3748 3749 3790
3708 6 3625 3666 3667 3749 3750 3791
3709 6 3626 3667 3668 3750 3751 3792
3710 6 3627 3668 3669 3751 3752 3793
3711 6 3628 3669 3670 3752 3753 3794
3712 6 3629 3670 3671 3753 3754 3795
3713 6 3630 3671 3672 3754 3755 3796
3714 6 3631 3672 3673 3755 3756 3797
3715 6 3632 3673 3674 3756 3757 3798
3716 6 3633 3674 3675 3757 3758 3799
3717 6 3634 3675 3676 3758 3759 3800
3718 6 3635 3676 3677 3759 3760 3801
3719 6 3636 3677 3678 3760 3761 3802
3720 6 3637 3678 3679 3761 3762 3803
3721 6 3638 3679 3680 3762 3763 3804
3722 6 3639 3680 3681 3763 3764 3805
3723 6 3640 3681 3682 3764 3765 3806
3724 6 3641 3682 3683 3765 3766 3807
3725 6 3642 3683 3684 3766 3767 3808
3726 6 3643 3684 3685 3767 3768 3809
3727 6 3644 3685 3686 3768 3769 3810
3728 6 3645 3686 3687 3769 3770 3811
3729 6 3646 3687 3688 3770 3771 3812
3730 6 3647 3688 3689 3771 3772 3813
3731 6 3648 3689 3690 3772 3773 3814
3732 4 3649 3690 3773 3815
3733 6 3650 3691 3692 3774 3775 3817
3734 6 3651 3692 3693 3775 3776 3818
3735 6 3652 3693 3694 3776 3777 3819
3736 6 3653 3694 3695 3777 3778 3820
3737 6 3654 3695 3696 3778 3779 3821
3738 6 3655 3696 3697 3779 3780 3822
3739 6 3656 3697 3698 3780 3781 3823
3740 6 3657 3698 3699 3781 3782 3824
3741 6 3658 3699 3700 3782 3783 3825
3742 6 3659 3700 3701 3783 3784 3826
3743 6 3660 3701 3702 3784 3785 3827
3744 6 3661 3702 3703 3785 3786 3828
3745 6 3662 3703 3704 3786 3787 3829
3746 6 3663 3704 3705 3787 3788 3830
3747 6 3664 3705 3706 3788 3789 3831
3748 6 3665 3706 3707 3789 3790 3832
3749 6 3666 3707 3708 3790 3791 3833
3750 6 3667 3708 3709 3791 3792 3834
3751 6 3668 3709 3710 3792 3793 3835
3752 6 3669 3710 3711 3793 3794 3836
3753 6 3670 3711 3712 3794 3795 3837
3754 6 3671 3712 3713 3795 3796 3838
3755 6 3672 3713 3714 3796 3797 3839
3756 6 3673 3714 3715 3797 3798 3840
3757 6 3674 3715 3716 3798 3799 3841
3758 6 3675 3716 3717 3799 3800 3842
3759 6 3676 3717 3718 3800 3801 3843
3760 6 3677 3718 3719 3801 3802 3844
3761 6 3678 3719 3720 3802 3803 3845
3762 6 3679 3720 3721 3803 3804 3846
3763 6 3680 3721 3722 3804 3805 3847
3764 6 3681 3722 3723 3805 3806 3848
3765 6 3682 3723 3724 3806 3807 3849
3766 6 3683 3724 3725 3807 3808 3850
3767 6 3684 3725 3726 3808 3809 3851
3768 6 3685 3726 3727 3809 3810 3852
3769 6 3686 3727 3728 3810 3811 3853
3770 6 3687 3728 3729 3811 3812 3854
3771 6 3688 3729 3730 3812 3813 3855
3772 6 3689 3730 3731 3813 3814 3856
3773 6 3690 3731 3732 3814 3815 3857
3774 5 3691 3733 3816 3817 3858
3775 6 3692 3733 3734 3817 3818 3859
3776 6 3693 3734 3735 3818 3819 3860
3777 6 3694 3735 3736 3819 3820 3861
3778 6 3695 3736 3737 3820 3821 3862
3779 6 3696 3737 3738 3821 3822 3863
3780 6 3697 3738 3739 3822 3823 3864
3781 6 3698 3739 3740 3823 3824 3865
3782 6 3699 3740 3741 3824 3825 3866
3783 6 3700 3741 3742 3825 3826 3867
3784 6 3701 3742 3743 3826 3827 3868
3785 6 3702 3743 3744 3827 3828 3869
3786 6 3703 3744 3745 3828 3829 3870
3787 6 3704 3745 3746 3829 3830 3871
3788 6 3705 3746 3747 3830 3831 3872
3789 6 3706 3747 3748 3831 3832 3873
3790 6 3707 3748 3749 3832 3833 3874
3791 6 3708 3749 3750 3833 3834 3875
3792 6 3709 3750 3751 3834 3835 3876
3793 6 3710 3751 3752 3835 3836 3877
3794 6 3711 3752 3753 3836 3837 3878
3795 6 3712 3753 3754 3837 3838 3879
3796 6 3713 3754 3755 3838 3839 3880
3797 6 3714 3755 3756 3839 3840 3881
3798 6 3715 3756 3757 3840 3841 3882
3799 6 3716 3757 3758 3841 3842 3883
3800 6 3717 3758 3759 3842 3843 3884
3801 6 3718 3759 3760 3843 3844 3885
3802 6 3719 3760 3761 3844 3845 3886
3803 6 3720 3761 3762 3845 3846 3887
3804 6 3721 3762 3763 3846 3847 3888
3805 6 3722 3763 3764 3847 3848 3889
3806 6 3723 3764 3765 3848 3849 3890
3807 6 3724 3765 3766 3849 3850 3891
3808 6 3725 3766 3767 3850 3851 3892
3809 6 3726 3767 3768 3851 3852 3893
3810 6 3727 3768 3769 3852 3853 3894
3811 6 3728 3769 3770 3853 3854 3895
3812 6 3729 3770 3771 3854 3855 3896
3813 6 3730 3771 3772 3855 3856 3897
3814 6 3731 3772 3773 3856 3857 3898
3815 4 3732 3773 3857 3899
3816 3 3774 3858 3900
3817 6 3733 3774 3775 3858 3859 3901
3818 6 3734 3775 3776 3859 3860 3902
3819 6 3735 3776 3777 3860 3861 3903
3820 6 3736 3777 3778 3861 3862 3904
3821 6 3737 3778 3779 3862 3863 3905
3822 6 3738 3779 3780 3863 3864 3906
3823 6 3739 3780 3781 3864 3865 3907
3824 6 3740 3781 3782 3865 3866 3908
3825 6 3741 3782 3783 3866 3867 3909
3826 6 3742 3783 3784 3867 3868 3910
3827 6 3743 3784 3785 3868 3869 3911
3828 6 3744 3785 3786 3869 3870 3912
3829 6 3745 3786 3787 3870 3871 3913
3830 6 3746 3787 3788 3871 3872 3914
3831 6 3747 3788 3789 3872 3873 3915
3832 6 3748 3789 3790 3873 3874 3916
3833 6 3749 3790 3791 3874 3875 3917
3834 6 3750 3791 3792 3875 3876 3918
3835 6 3751 3792 3793 3876 3877 3919
3836 6 3752 3793 3794 3877 3878 3920
3837 6 3753 3794 3795 3878 3879 3921
3838 6 3754 3795 3796 3879 3880 3922
3839 6 3755 3796 3797 3880 3881 3923
3840 6 3756 3797 3798 3881 3882 3924
3841 6 3757 3798 3799 3882 3883 3925
3842 6 3758 3799 3800 3883 3884 3926
3843 6 3759 3800 3801 3884 3885 3927
3844 6 3760 3801 3802 3885 3886 3928
3845 6 3761 3802 3803 3886 3887 3929
3846 6 3762 3803 3804 3887 3888 3930
3847 6 3763 3804 3805 3888 3889 3931
3848 6 3764 3805 3806 3889 3890 3932
3849 6 3765 3806 3807 3890 3891 3933
3850 6 3766 3807 3808 3891 3892 3934
3851 6 3767 3808 3809 3892 3893 3935
3852 6 3768 3809 3810 3893 3894 3936
3853 6 3769 3810 3811 3894 3895 3937
3854 6 3770 3811 3812 3895 3896 3938
3855 6 3771 3812 3813 3896 3897 3939
3856 6 3772 3813 3814 3897 3898 3940
3857 6 3773 3814 3815 3898 3899 3941
3858 6 3774 3816 3817 3900 3901 3942
3859 6 3775 3817 3818 3901 3902 3943
3860 6 3776 3818 3819 3902 3903 3944
3861 6 3777 3819 3820 3903 3904 3945
3862 6 3778 3820 3821 3904 3905 3946
3863 6 3779 3821 3822 3905 3906 3947
3864 6 3780 3822 3823 3906 3907 3948
3865 6 3781 3823 3824 3907 3908 3949
3866 6 3782 3824 3825 3908 3909 3950
3867 6 3783 3825 3826 3909 3910 3951
3868 6 3784 3826 3827 3910 3911 3952
3869 6 3785 3827 3828 3911 3912 3953
3870 6 3786 3828 3829 3912 3913 3954
3871 6 3787 3829 3830 3913 3914 3955
3872 6 3788 3830 3831 3914 3915 3956
3873 6 3789 3831 3832 3915 3916 3957
3874 6 3790 3832 3833 3916 3917 3958
3875 6 3791 3833 3834 3917 3918 3959
3876 6 3792 3834 3835 3918 3919 3960
3877 6 3793 3835 3836 3919 3920 3961
3878 6 3794 3836 3837 3920 3921 3962
3879 6 3795 3837 3838 3921 3922 3963
3880 6 3796 3838 3839 3922 3923 3964
3881 6 3797 3839 3840 3923 3924 3965
3882 6 3798 3840 3841 3924 3925 3966
3883 6 3799 3841 3842 3925 3926 3967
3884 6 3800 3842 3843 3926 3927 3968
3885 6 3801 3843 3844 3927 3928 3969
3886 6 3802 3844 3845 3928 3929 3970
3887 6 3803 3845 3846 3929 3930 3971
3888 6 3804 3846 3847 3930 3931 3972
3889 6 3805 3847 3848 3931 3932 3973
3890 6 3806 3848 3849 3932 3933 3974
3891 6 3807 3849 3850 3933 3934 3975
3892 6 3808 3850 3851 3934 3935 3976
3893 6 3809 3851 3852 3935 3936 3977
3894 6 3810 3852 3853 3936 3937 3978
3895 6 3811 3853 3854 3937 3938 3979
3896 6 3812 3854 3855 3938 3939 3980
3897 6 3813 3855 3856 3939 3940 3981
3898 6 3814 3856 3857 3940 3941 3982
3899 4 3815 3857 3941 3983
3900 4 3816 3858 3942 3984
3901 6 3817 3858 3859 3942 3943 3985
3902 6 3818 3859 3860 3943 3944 3986
3903 6 3819 3860 3861 3944 3945 3987
3904 6 3820 3861 3862 3945 3946 3988
3905 6 3821 3862 3863 3946 3947 3989
3906 6 3822 3863 3864 3947 3948 3990
3907 6 3823 3864 3865 3948 3949 3991
3908 6 3824 3865 3866 3949 3950 3992
3909 6 3825 3866 3867 3950 3951 3993
3910 6 3826 3867 3868 3951 3952 3994
3911 6 3827 3868 3869 3952 3953 3995
3912 6 3828 3869 3870 3953 3954 3996
3913 6 3829 3870 3871 3954 3955 3997
3914 6 3830 3871 3872 3955 3956 3998
3915 6 3831 3872 3873 3956 3957 3999
3916 6 3832 3873 3874 3957 3958 4000
3917 6 3833 3874 3875 3958 3959 4001
3918 6 3834 3875 3876 3959 3960 4002
3919 6 3835 3876 3877 3960 3961 4003
3920 6 3836 3877 3878 3961 3962 4004
3921 6 3837 3878 3879 3962 3963 4005
3922 6 3838 3879 3880 3963 3964 4006
3923 6 3839 3880 3881 3964 3965 4007
3924 6 3840 3881 3882 3965 3966 4008
3925 6 3841 3882 3883 3966 3967 4009
3926 6 3842 3883 3884 3967 3968 4010
3927 6 3843 3884 3885 3968 3969 4011
3928 6 3844 3885 3886 3969 3970 4012
3929 6 3845 3886 3887 3970 3971 4013
3930 6 3846 3887 3888 3971 3972 4014
3931 6 3847 3888 3889 3972 3973 4015
3932 6 3848 3889 3890 3973 3974 4016
3933 6 3849 3890 3891 3974 3975 4017
3934 6 3850 3891 3892 3975 3976 4018
3935 6 3851 3892 3893 3976 3977 4019
3936 6 3852 3893 3894 3977 3978 4020
3937 6 3853 3894 3895 3978 3979 4021
3938 6 3854 3895 3896 3979 3980 4022
3939 6 3855 3896 3897 3980 3981 4023
3940 6 3856 3897 3898 3981 3982 4024
3941 6 3857 3898 3899 3982 3983 4025
3942 6 3858 3900 3901 3984 3985 4027
3943 6 3859 3901 3902 3985 3986 4028
3944 6 3860 3902 3903 3986 3987 4029
3945 6 3861 3903 3904 3987 3988 4030
3946 6 3862 3904 3905 3988 3989 4031
3947 6 3863 3905 3906 3989 3990 4032
3948 6 3864 3906 3907 3990 3991 4033
3949 6 3865 3907 3908 3991 3992 4034
3950 6 3866 3908 3909 3992 3993 4035
3951 6 3867 3909 3910 3993 3994 4036
3952 6 3868 3910 3911 3994 3995 4037
3953 6 3869 3911 3912 3995 3996 4038
3954 6 3870 3912 3913 3996 3997 4039
3955 6 3871 3913 3914 3997 3998 4040
3956 6 3872 3914 3915 3998 3999 4041
3957 6 3873 3915 3916 3999 4000 4042
3958 6 3874 3916 3917 4000 4001 4043
3959 6 3875 3917 3918 4001 4002 4044
3960 6 3876 3918 3919 4002 4003 4045
3961 6 3877 3919 3920 4003 4004 4046
3962 6 3878 3920 3921 4004 4005 4047
3963 6 3879 3921 3922 4005 4006 4048
3964 6 3880 3922 3923 4006 4007 4049
3965 6 3881 3923 3924 4007 4008 4050
3966 6 3882 3924 3925 4008 4009 4051
3967 6 3883 3925 3926 4009 4010 4052
3968 6 3884 3926 3927 4010 4011 4053
3969 6 3885 3927 3928 4011 4012 4054
3970 6 3886 3928 3929 4012 4013 4055
3971 6 3887 3929 3930 4013 4014 4056
3972 6 3888 3930 3931 4014 4015 4057
3973 6 3889 3931 3932 4015 4016 4058
3974 6 3890 3932 3933 4016 4017 4059
3975 6 3891 3933 3934 4017 4018 4060
3976 6 3892 3934 3935 4018 4019 4061
3977 6 3893 3935 3936 4019 4020 4062
3978 6 3894 3936 3937 4020 4021 4063
3979 6 3895 3937 3938 4021 4022 4064
3980 6 3896 3938 3939 4022 4023 4065
3981 6 3897 3939 3940 4023 4024 4066
3982 6 3898 3940 3941 4024 4025 4067
3983 4 3899 3941 4025 4068
3984 5 3900 3942 4026 4027 4069
3985 6 3901 3942 3943 4027 4028 4070
3986 5 3902 3943 3944 4028 4029
3987 6 3903 3944 3945 4029 4030 4071
3988 6 3904 3945 3946 4030 4031 4072
3989 6 3905 3946 3947 4031 4032 4073
3990 6 3906 3947 3948 4032 4033 4074
3991 6 3907 3948 3949 4033 4034 4075
3992 6 3908 3949 3950 4034 4035 4076
3993 6 3909 3950 3951 4035 4036 4077
3994 6 3910 3951 3952 4036 4037 4078
3995 6 3911 3952 3953 4037 4038 4079
3996 6 3912 3953 3954 4038 4039 4080
3997 6 3913 3954 3955 4039 4040 4081
3998 6 3914 3955 3956 4040 4041 4082
3999 6 3915 3956 3957 4041 4042 4083
4000 6 3916 3957 3958 4042 4043 4084
4001 6 3917 3958 3959 4043 4044 4085
4002 6 3918 3959 3960 4044 4045 4086
4003 6 3919 3960 3961 4045 4046 4087
4004 6 3920 3961 3962 4046 4047 4088
4005 6 3921 3962 3963 4047 4048 4089
4006 6 3922 3963 3964 4048 4049 4090
4007 6 3923 3964 3965 4049 4050 4091
4008 6 3924 3965 3966 4050 4051 4092
4009 6 3925 3966 3967 4051 4052 4093
4010 6 3926 3967 3968 4052 4053 4094
4011 6 3927 3968 3969 4053 4054 4095
4012 6 3928 3969 3970 4054 4055 4096
4013 6 3929 3970 3971 4055 4056 4097
4014 6 3930 3971 3972 4056 4057 4098
4015 6 3931 3972 3973 4057 4058 4099
4016 6 3932 3973 3974 4058 4059 4100
4017 6 3933 3974 3975 4059 4060 4101
4018 6 3934 3975 3976 4060 4061 4102
4019 6 3935 3976 3977 4061 4062 4103
4020 6 3936 3977 3978 4062 4063 4104
4021 6 3937 3978 3979 4063 4064 4105
4022 6 3938 3979 3980 4064 4065 4106
4023 6 3939 3980 3981 4065 4066 4107
4024 6 3940 3981 3982 4066 4067 4108
4025 6 3941 3982 3983 4067 4068 4109
4026 2 3984 4069
4027 5 3942 3984 3985 4069 4070
4028 4 3943 3985 3986 4070
4029 4 3944 3986 3987 4071
4030 6 3945 3987 3988 4071 4072 4110
4031 6 3946 3988 3989 4072 4073 4111
4032 6 3947 3989 3990 4073 4074 4112
4033 6 3948 3990 3991 4074 4075 4113
4034 6 3949 3991 3992 4075 4076 4114
4035 6 3950 3992 3993 4076 4077 4115
4036 6 3951 3993 3994 4077 4078 4116
4037 6 3952 3994 3995 4078 4079 4117
4038 6 3953 3995 3996 4079 4080 4118
4039 6 3954 3996 3997 4080 4081 4119
4040 6 3955 3997 3998 4081 4082 4120
4041 6 3956 3998 3999 4082 4083 4121
4042 6 3957 3999 4000 4083 4084 4122
4043 6 3958 4000 4001 4084 4085 4123
4044 6 3959 4001 4002 4085 4086 4124
4045 6 3960 4002 4003 4086 4087 4125
4046 6 3961 4003 4004 4087 4088 4126
4047 6 3962 4004 4005 4088 4089 4127
4048 6 3963 4005 4006 4089 4090 4128
4049 6 3964 4006 4007 4090 4091 4129
4050 6 3965 4007 4008 4091 4092 4130
4051 6 3966 4008 4009 4092 4093 4131
4052 6 3967 4009 4010 4093 4094 4132
4053 6 3968 4010 4011 4094 4095 4133
4054 6 3969 4011 4012 4095 4096 4134
4055 6 3970 4012 4013 4096 4097 4135
4056 6 3971 4013 4014 4097 4098 4136
4057 6 3972 4014 4015 4098 4099 4137
4058 6 3973 4015 4016 4099 4100 4138
4059 6 3974 4016 4017 4100 4101 4139
4060 6 3975 4017 4018 4101 4102 4140
4061 6 3976 4018 4019 4102 4103 4141
4062 6 3977 4019 4020 4103 4104 4142
4063 6 3978 4020 4021 4104 4105 4143
4064 6 3979 4021 4022 4105 4106 4144
4065 6 3980 4022 4023 4106 4107 4145
4066 6 3981 4023 4024 4107 4108 4146
4067 6 3982 4024 4025 4108 4109 4147
4068 4 3983 4025 4109 4148
4069 3 3984 4026 4027
4070 3 3985 4027 4028
4071 4 3987 4029 4030 4110
4072 6 3988 4030 4031 4110 4111 4149
4073 6 3989 4031 4032 4111 4112 4150
4074 6 3990 4032 4033 4112 4113 4151
4075 6 3991 4033 4034 4113 4114 4152
4076 6 3992 4034 4035 4114 4115 4153
4077 6 3993 4035 4036 4115 4116 4154
4078 6 3994 4036 4037 4116 4117 4155
4079 6 3995 4037 4038 4117 4118 4156
4080 6 3996 4038 4039 4118 4119 4157
4081 6 3997 4039 4040 4119 4120 4158
4082 6 3998 4040 4041 4120 4121 4159
4083 6 3999 4041 4042 4121 4122 4160
4084 6 4000 4042 4043 4122 4123 4161
4085 6 4001 4043 4044 4123 4124 4162
4086 6 4002 4044 4045 4124 4125 4163
4087 6 4003 4045 4046 4125 4126 4164
4088 6 4004 4046 4047 4126 4127 4165
4089 6 4005 4047 4048 4127 4128 4166
4090 6 4006 4048 4049 4128 4129 4167
4091 6 4007 4049 4050 4129 4130 4168
4092 6 4008 4050 4051 4130 4131 4169
4093 6 4009 4051 4052 4131 4132 4170
4094 6 4010 4052 4053 4132 4133 4171
4095 6 4011 4053 4054 4133 4134 4172
4096 6 4012 4054 4055 4134 4135 4173
4097 6 4013 4055 4056 4135 4136 4174
4098 6 4014 4056 4057 4136 4137 4175
4099 6 4015 4057 4058 4137 4138 4176
4100 6 4016 4058 4059 4138 4139 4177
4101 6 4017 4059 4060 4139 4140 4178
4102 6 4018 4060 4061 4140 4141 4179
4103 6 4019 4061 4062 4141 4142 4180
4104 6 4020 4062 4063 4142 4143 4181
4105 6 4021 4063 4064 4143 4144 4182
4106 6 4022 4064 4065 4144 4145 4183
4107 6 4023 4065 4066 4145 4146 4184
4108 6 4024 4066 4067 4146 4147 4185
4109 6 4025 4067 4068 4147 4148 4186
4110 4 4030 4071 4072 4149
4111 6 4031 4072 4073 4149 4150 4187
4112 6 4032 4073 4074 4150 4151 4188
4113 6 4033 4074 4075 4151 4152 4189
4114 6 4034 4075 4076 4152 4153 4190
4115 6 4035 4076 4077 4153 4154 4191
4116 6 4036 4077 4078 4154 4155 4192
4117 6 4037 4078 4079 4155 4156 4193
4118 6 4038 4079 4080 4156 4157 4194
4119 6 4039 4080 4081 4157 4158 4195
4120 6 4040 4081 4082 4158 4159 4196
4121 6 4041 4082 4083 4159 4160 4197
4122 6 4042 4083 4084 4160 4161 4198
4123 6 4043 4084 4085 4161 4162 4199
4124 6 4044 4085 4086 4162 4163 4200
4125 6 4045 4086 4087 4163 4164 4201
4126 6 4046 4087 4088 4164 4165 4202
4127 6 4047 4088 4089 4165 4166 4203
4128 6 4048 4089 4090 4166 4167 4204
4129 6 4049 4090 4091 4167 4168 4205
4130 6 4050 4091 4092 4168 4169 4206
4131 6 4051 4092 4093 4169 4170 4207
4132 6 4052 4093 4094 4170 4171 4208
4133 6 4053 4094 4095 4171 4172 4209
4134 6 4054 4095 4096 4172 4173 4210
4135 6 4055 4096 4097 4173 4174 4211
4136 6 4056 4097 4098 4174 4175 4212
4137 6 4057 4098 4099 4175 4176 4213
4138 6 4058 4099 4100 4176 4177 4214
4139 6 4059 4100 4101 4177 4178 4215
4140 6 4060 4101 4102 4178 4179 4216
4141 6 4061 4102 4103 4179 4180 4217
4142 6 4062 4103 4104 4180 4181 4218
4143 6 4063 4104 4105 4181 4182 4219
4144 6 4064 4105 4106 4182 4183 4220
4145 6 4065 4106 4107 4183 4184 4221
4146 6 4066 4107 4108 4184 4185 4222
4147 6 4067 4108 4109 4185 4186 4223
4148 4 4068 4109 4186 4224
4149 5 4072 4110 4111 4187 4225
4150 6 4073 4111 4112 4187 4188 4226
4151 6 4074 4112 4113 4188 4189 4227
4152 6 4075 4113 4114 4189 4190 4228
4153 6 4076 4114 4115 4190 4191 4229
4154 6 4077 4115 4116 4191 4192 4230
4155 6 4078 4116 4117 4192 4193 4231
4156 6 4079 4117 4118 4193 4194 4232
4157 6 4080 4118 4119 4194 4195 4233
4158 6 4081 4119 4120 4195 4196 4234
4159 6 4082 4120 4121 4196 4197 4235
4160 6 4083 4121 4122 4197 4198 4236
4161 6 4084 4122 4123 4198 4199 4237
4162 6 4085 4123 4124 4199 4200 4238
4163 6 4086 4124 4125 4200 4201 4239
4164 6 4087 4125 4126 4201 4202 4240
4165 6 4088 4126 4127 4202 4203 4241
4166 6 4089 4127 4128 4203 4204 4242
4167 6 4090 4128 4129 4204 4205 4243
4168 6 4091 4129 4130 4205 4206 4244
4169 6 4092 4130 4131 4206 4207 4245
4170 6 4093 4131 4132 4207 4208 4246
4171 6 4094 4132 4133 4208 4209 4247
4172 6 4095 4133 4134 4209 4210 4248
4173 6 4096 4134 4135 4210 4211 4249
4174 6 4097 4135 4136 4211 4212 4250
4175 6 4098 4136 4137 4212 4213 4251
4176 6 4099 4137 4138 4213 4214 4252
4177 6 4100 4138 4139 4214 4215 4253
4178 6 4101 4139 4140 4215 4216 4254
4179 6 4102 4140 4141 4216 4217 4255
4180 6 4103 4141 4142 4217 4218 4256
4181 6 4104 4142 4143 4218 4219 4257
4182 6 4105 4143 4144 4219 4220 4258
4183 6 4106 4144 4145 4220 4221 4259
4184 6 4107 4145 4146 4221 4222 4260
4185 6 4108 4146 4147 4222 4223 4261
4186 6 4109 4147 4148 4223 4224 4262
4187 6 4111 4149 4150 4225 4226 4263
4188 6 4112 4150 4151 4226 4227 4264
4189 6 4113 4151 4152 4227 4228 4265
4190 6 4114 4152 4153 4228 4229 4266
4191 6 4115 4153 4154 4229 4230 4267
4192 6 4116 4154 4155 4230 4231 4268
4193 6 4117 4155 4156 4231 4232 4269
4194 6 4118 4156 4157 4232 4233 4270
4195 6 4119 4157 4158 4233 4234 4271
4196 6 4120 4158 4159 4234 4235 4272
4197 6 4121 4159 4160 4235 4236 4273
4198 6 4122 4160 4161 4236 4237 4274
4199 6 4123 4161 4162 4237 4238 4275
4200 6 4124 4162 4163 4238 4239 4276
4201 6 4125 4163 4164 4239 4240 4277
4202 6 4126 4164 4165 4240 4241 4278
4203 6 4127 4165 4166 4241 4242 4279
4204 6 4128 4166 4167 4242 4243 4280
4205 6 4129 4167 4168 4243 4244 4281
4206 6 4130 4168 4169 4244 4245 4282
4207 6 4131 4169 4170 4245 4246 4283
4208 6 4132 4170 4171 4246 4247 4284
4209 6 4133 4171 4172 4247 4248 4285
4210 6 4134 4172 4173 4248 4249 4286
4211 6 4135 4173 4174 4249 4250 4287
4212 6 4136 4174 4175 4250 4251 4288
4213 6 4137 4175 4176 4251 4252 4289
4214 6 4138 4176 4177 4252 4253 4290
4215 6 4139 4177 4178 4253 4254 4291
4216 6 4140 4178 4179 4254 4255 4292
4217 6 4141 4179 4180 4255 4256 4293
4218 6 4142 4180 4181 4256 4257 4294
4219 6 4143 4181 4182 4257 4258 4295
4220 6 4144 4182 4183 4258 4259 4296
4221 6 4145 4183 4184 4259 4260 4297
4222 6 4146 4184 4185 4260 4261 4298
4223 6 4147 4185 4186 4261 4262 4299
4224 4 4148 4186 4262 4300
4225 3 4149 4187 4263
4226 6 4150 4187 4188 4263 4264 4301
4227 6 4151 4188 4189 4264 4265 4302
4228 6 4152 4189 4190 4265 4266 4303
4229 6 4153 4190 4191 4266 4267 4304
4230 6 4154 4191 4192 4267 4268 4305
4231 6 4155 4192 4193 4268 4269 4306
4232 6 4156 4193 4194 4269 4270 4307
4233 6 4157 4194 4195 4270 4271 4308
4234 6 4158 4195 4196 4271 4272 4309
4235 6 4159 4196 4197 4272 4273 4310
4236 6 4160 4197 4198 4273 4274 4311
4237 6 4161 4198 4199 4274 4275 4312
4238 6 4162 4199 4200 4275 4276 4313
4239 6 4163 4200 4201 4276 4277 4314
4240 6 4164 4201 4202 4277 4278 4315
4241 6 4165 4202 4203 4278 4279 4316
4242 6 4166 4203 4204 4279 4280 4317
4243 6 4167 4204 4205 4280 4281 4318
4244 6 4168 4205 4206 4281 4282 4319
4245 6 4169 4206 4207 4282 4283 4320
4246 6 4170 4207 4208 4283 4284 4321
4247 6 4171 4208 4209 4284 4285 4322
4248 6 4172 4209 4210 4285 4286 4323
4249 6 4173 4210 4211 4286 4287 4324
4250 6 4174 4211 4212 4287 4288 4325
4251 6 4175 4212 4213 4288 4289 4326
4252 6 4176 4213 4214 4289 4290 4327
4253 6 4177 4214 4215 4290 4291 4328
4254 6 4178 4215 4216 4291 4292 4329
4255 6 4179 4216 4217 4292 4293 4330
4256 6 4180 4217 4218 4293 4294 4331
4257 6 4181 4218 4219 4294 4295 4332
4258 6 4182 4219 4220 4295 4296 4333
4259 6 4183 4220 4221 4296 4297 4334
4260 6 4184 4221 4222 4297 4298 4335
4261 6 4185 4222 4223 4298 4299 4336
4262 6 4186 4223 4224 4299 4300 4337
4263 5 4187 4225 4226 4301 4338
4264 6 4188 4226 4227 4301 4302 4339
4265 6 4189 4227 4228 4302 4303 4340
4266 6 4190 4228 4229 4303 4304 4341
4267 6 4191 4229 4230 4304 4305 4342
4268 6 4192 4230 4231 4305 4306 4343
4269 6 4193 4231 4232 4306 4307 4344
4270 6 4194 4232 4233 4307 4308 4345
4271 6 4195 4233 4234 4308 4309 4346
4272 6 4196 4234 4235 4309 4310 4347
4273 6 4197 4235 4236 4310 4311 4348
4274 6 4198 4236 4237 4311 4312 4349
4275 6 4199 4237 4238 4312 4313 4350
4276 6 4200 4238 4239 4313 4314 4351
4277 6 4201 4239 4240 4314 4315 4352
4278 6 4202 4240 4241 4315 4316 4353
4279 6 4203 4241 4242 4316 4317 4354
4280 6 4204 4242 4243 4317 4318 4355
4281 6 4205 4243 4244 4318 4319 4356
4282 6 4206 4244 4245 4319 4320 4357
4283 6 4207 4245 4246 4320 4321 4358
4284 6 4208 4246 4247 4321 4322 4359
4285 6 4209 4247 4248 4322 4323 4360
4286 6 4210 4248 4249 4323 4324 4361
4287 6 4211 4249 4250 4324 4325 4362
4288 6 4212 4250 4251 4325 4326 4363
4289 6 4213 4251 4252 4326 4327 4364
4290 6 4214 4252 4253 4327 4328 4365
4291 6 4215 4253 4254 4328 4329 4366
4292 6 4216 4254 4255 4329 4330 4367
4293 6 4217 4255 4256 4330 4331 4368
4294 6 4218 4256 4257 4331 4332 4369
4295 6 4219 4257 4258 4332 4333 4370
4296 6 4220 4258 4259 4333 4334 4371
4297 6 4221 4259 4260 4334 4335 4372
4298 6 4222 4260 4261 4335 4336 4373
4299 6 4223 4261 4262 4336 4337 4374
4300 4 4224 4262 4337 4375
4301 6 4226 4263 4264 4338 4339 4376
4302 6 4227 4264 4265 4339 4340 4377
4303 6 4228 4265 4266 4340 4341 4378
4304 6 4229 4266 4267 4341 4342 4379
4305 6 4230 4267 4268 4342 4343 4380
4306 6 4231 4268 4269 4343 4344 4381
4307 6 4232 4269 4270 4344 4345 4382
4308 6 4233 4270 4271 4345 4346 4383
4309 6 4234 4271 4272 4346 4347 4384
4310 6 4235 4272 4273 4347 4348 4385
4311 6 4236 4273 4274 4348 4349 4386
4312 6 4237 4274 4275 4349 4350 4387
4313 6 4238 4275 4276 4350 4351 4388
4314 6 4239 4276 4277 4351 4352 4389
4315 6 4240 4277 4278 4352 4353 4390
4316 6 4241 4278 4279 4353 4354 4391
4317 6 4242 4279 4280 4354 4355 4392
4318 6 4243 4280 4281 4355 4356 4393
4319 6 4244 4281 4282 4356 4357 4394
4320 6 4245 4282 4283 4357 4358 4395
4321 6 4246 4283 4284 4358 4359 4396
4322 6 4247 4284 4285 4359 4360 4397
4323 6 4248 4285 4286 4360 4361 4398
4324 6 4249 4286 4287 4361 4362 4399
4325 6 4250 4287 4288 4362 4363 4400
4326 6 4251 4288 4289 4363 4364 4401
4327 6 4252 4289 4290 4364 4365 4402
4328 6 4253 4290 4291 4365 4366 4403
4329 6 4254 4291 4292 4366 4367 4404
4330 6 4255 4292 4293 4367 4368 4405
4331 6 4256 4293 4294 4368 4369 4406
4332 6 4257 4294 4295 4369 4370 4407
4333 6 4258 4295 4296 4370 4371 4408
4334 6 4259 4296 4297 4371 4372 4409
4335 6 4260 4297 4298 4372 4373 4410
4336 6 4261 4298 4299 4373 4374 4411
4337 6 4262 4299 4300 4374 4375 4412
4338 3 4263 4301 4376
4339 6 4264 4301 4302 4376 4377 4413
4340 6 4265 4302 4303 4377 4378 4414
4341 6 4266 4303 4304 4378 4379 4415
4342 6 4267 4304 4305 4379 4380 4416
4343 6 4268 4305 4306 4380 4381 4417
4344 6 4269 4306 4307 4381 4382 4418
4345 6 4270 4307 4308 4382 4383 4419
4346 6 4271 4308 4309 4383 4384 4420
4347 6 4272 4309 4310 4384 4385 4421
4348 6 4273 4310 4311 4385 4386 4422
4349 6 4274 4311 4312 4386 4387 4423
4350 6 4275 4312 4313 4387 4388 4424
4351 6 4276 4313 4314 4388 4389 4425
4352 6 4277 4314 4315 4389 4390 4426
4353 6 4278 4315 4316 4390 4391 4427
4354 6 4279 4316 4317 4391 4392 4428
4355 6 4280 4317 4318 4392 4393 4429
4356 6 4281 4318 4319 4393 4394 4430
4357 6 4282 4319 4320 4394 4395 4431
4358 6 4283 4320 4321 4395 4396 4432
4359 6 4284 4321 4322 4396 4397 4433
4360 6 4285 4322 4323 4397 4398 4434
4361 6 4286 4323 4324 4398 4399 4435
4362 6 4287 4324 4325 4399 4400 4436
4363 6 4288 4325 4326 4400 4401 4437
4364 6 4289 4326 4327 4401 4402 4438
4365 6 4290 4327 4328 4402 4403 4439
4366 6 4291 4328 4329 4403 4404 4440
4367 6 4292 4329 4330 4404 4405 4441
4368 6 4293 4330 4331 4405 4406 4442
4369 6 4294 4331 4332 4406 4407 4443
4370 6 4295 4332 4333 4407 4408 4444
4371 6 4296 4333 4334 4408 4409 4445
4372 6 4297 4334 4335 4409 4410 4446
4373 6 4298 4335 4336 4410 4411 4447
4374 6 4299 4336 4337 4411 4412 4448
4375 4 4300 4337 4412 4449
4376 5 4301 4338 4339 4413 4450
4377 6 4302 4339 4340 4413 4414 4451
4378 6 4303 4340 4341 4414 4415 4452
4379 6 4304 4341 4342 4415 4416 4453
4380 6 4305 4342 4343 4416 4417 4454
4381 6 4306 4343 4344 4417 4418 4455
4382 6 4307 4344 4345 4418 4419 4456
4383 6 4308 4345 4346 4419 4420 4457
4384 6 4309 4346 4347 4420 4421 4458
4385 6 4310 4347 4348 4421 4422 4459
4386 6 4311 4348 4349 4422 4423 4460
4387 6 4312 4349 4350 4423 4424 4461
4388 6 4313 4350 4351 4424 4425 4462
4389 6 4314 4351 4352 4425 4426 4463
4390 6 4315 4352 4353 4426 4427 4464
4391 6 4316 4353 4354 4427 4428 4465
4392 6 4317 4354 4355 4428 4429 4466
4393 6 4318 4355 4356 4429 4430 4467
4394 6 4319 4356 4357 4430 4431 4468
4395 6 4320 4357 4358 4431 4432 4469
4396 6 4321 4358 4359 4432 4433 4470
4397 6 4322 4359 4360 4433 4434 4471
4398 6 4323 4360 4361 4434 4435 4472
4399 6 4324 4361 4362 4435 4436 4473
4400 6 4325 4362 4363 4436 4437 4474
4401 6 4326 4363 4364 4437 4438 4475
4402 6 4327 4364 4365 4438 4439 4476
4403 6 4328 4365 4366 4439 4440 4477
4404 6 4329 4366 4367 4440 4441 4478
4405 6 4330 4367 4368 4441 4442 4479
4406 6 4331 4368 4369 4442 4443 4480
4407 6 4332 4369 4370 4443 4444 4481
4408 6 4333 4370 4371 4444 4445 4482
4409 6 4334 4371 4372 4445 4446 4483
4410 6 4335 4372 4373 4446 4447 4484
4411 6 4336 4373 4374 4447 4448 4485
4412 6 4337 4374 4375 4448 4449 4486
4413 6 4339 4376 4377 4450 4451 4488
4414 6 4340 4377 4378 4451 4452 4489
4415 6 4341 4378 4379 4452 4453 4490
4416 6 4342 4379 4380 4453 4454 4491
4417 6 4343 4380 4381 4454 4455 4492
4418 6 4344 4381 4382 4455 4456 4493
4419 6 4345 4382 4383 4456 4457 4494
4420 6 4346 4383 4384 4457 4458 4495
4421 6 4347 4384 4385 4458 4459 4496
4422 6 4348 4385 4386 4459 4460 4497
4423 6 4349 4386 4387 4460 4461 4498
4424 6 4350 4387 4388 4461 4462 4499
4425 6 4351 4388 4389 4462 4463 4500
4426 6 4352 4389 4390 4463 4464 4501
4427 6 4353 4390 4391 4464 4465 4502
4428 6 4354 4391 4392 4465 4466 4503
4429 6 4355 4392 4393 4466 4467 4504
4430 6 4356 4393 4394 4467 4468 4505
4431 6 4357 4394 4395 4468 4469 4506
4432 6 4358 4395 4396 4469 4470 4507
4433 6 4359 4396 4397 4470 4471 4508
4434 6 4360 4397 4398 4471 4472 4509
4435 6 4361 4398 4399 4472 4473 4510
4436 6 4362 4399 4400 4473 4474 4511
4437 6 4363 4400 4401 4474 4475 4512
4438 6 4364 4401 4402 4475 4476 4513
4439 6 4365 4402 4403 4476 4477 4514
4440 6 4366 4403 4404 4477 4478 4515
4441 6 4367 4404 4405 4478 4479 4516
4442 6 4368 4405 4406 4479 4480 4517
4443 6 4369 4406 4407 4480 4481 4518
4444 6 4370 4407 4408 4481 4482 4519
4445 6 4371 4408 4409 4482 4483 4520
4446 6 4372 4409 4410 4483 4484 4521
4447 6 4373 4410 4411 4484 4485 4522
4448 6 4374 4411 4412 4485 4486 4523
4449 5 4375 4412 4486 4487 4524
4450 3 4376 4413 4488
4451 6 4377 4413 4414 4488 4489 4525
4452 6 4378 4414 4415 4489 4490 4526
4453 6 4379 4415 4416 4490 4491 4527
4454 6 4380 4416 4417 4491 4492 4528
4455 6 4381 4417 4418 4492 4493 4529
4456 6 4382 4418 4419 4493 4494 4530
4457 6 4383 4419 4420 4494 4495 4531
4458 6 4384 4420 4421 4495 4496 4532
4459 6 4385 4421 4422 4496 4497 4533
4460 6 4386 4422 4423 4497 4498 4534
4461 6 4387 4423 4424 4498 4499 4535
4462 6 4388 4424 4425 4499 4500 4536
4463 6 4389 4425 4426 4500 4501 4537
4464 6 4390 4426 4427 4501 4502 4538
4465 6 4391 4427 4428 4502 4503 4539
4466 6 4392 4428 4429 4503 4504 4540
4467 6 4393 4429 4430 4504 4505 4541
4468 6 4394 4430 4431 4505 4506 4542
4469 6 4395 4431 4432 4506 4507 4543
4470 6 4396 4432 4433 4507 4508 4544
4471 6 4397 4433 4434 4508 4509 4545
4472 6 4398 4434 4435 4509 4510 4546
4473 6 4399 4435 4436 4510 4511 4547
4474 6 4400 4436 4437 4511 4512 4548
4475 6 4401 4437 4438 4512 4513 4549
4476 6 4402 4438 4439 4513 4514 4550
4477 6 4403 4439 4440 4514 4515 4551
4478 6 4404 4440 4441 4515 4516 4552
4479 6 4405 4441 4442 4516 4517 4553
4480 6 4406 4442 4443 4517 4518 4554
4481 6 4407 4443 4444 4518 4519 4555
4482 6 4408 4444 4445 4519 4520 4556
4483 6 4409 4445 4446 4520 4521 4557
4484 6 4410 4446 4447 4521 4522 4558
4485 6 4411 4447 4448 4522 4523 4559
4486 6 4412 4448 4449 4523 4524 4560
4487 3 4449 4524 4561
4488 4 4413 4450 4451 4525
4489 6 4414 4451 4452 4525 4526 4562
4490 6 4415 4452 4453 4526 4527 4563
4491 6 4416 4453 4454 4527 4528 4564
4492 6 4417 4454 4455 4528 4529 4565
4493 6 4418 4455 4456 4529 4530 4566
4494 6 4419 4456 4457 4530 4531 4567
4495 6 4420 4457 4458 4531 4532 4568
4496 6 4421 4458 4459 4532 4533 4569
4497 6 4422 4459 4460 4533 4534 4570
4498 6 4423 4460 4461 4534 4535 4571
4499 6 4424 4461 4462 4535 4536 4572
4500 6 4425 4462 4463 4536 4537 4573
4501 6 4426 4463 4464 4537 4538 4574
4502 6 4427 4464 4465 4538 4539 4575
4503 6 4428 4465 4466 4539 4540 4576
4504 6 4429 4466 4467 4540 4541 4577
4505 6 4430 4467 4468 4541 4542 4578
4506 6 4431 4468 4469 4542 4543 4579
4507 6 4432 4469 4470 4543 4544 4580
4508 6 4433 4470 4471 4544 4545 4581
4509 6 4434 4471 4472 4545 4546 4582
4510 6 4435 4472 4473 4546 4547 4583
4511 6 4436 4473 4474 4547 4548 4584
4512 6 4437 4474 4475 4548 4549 4585
4513 6 4438 4475 4476 4549 4550 4586
4514 6 4439 4476 4477 4550 4551 4587
4515 6 4440 4477 4478 4551 4552 4588
4516 6 4441 4478 4479 4552 4553 4589
4517 6 4442 4479 4480 4553 4554 4590
4518 6 4443 4480 4481 4554 4555 4591
4519 6 4444 4481 4482 4555 4556 4592
4520 6 4445 4482 4483 4556 4557 4593
4521 6 4446 4483 4484 4557 4558 4594
4522 6 4447 4484 4485 4558 4559 4595
4523 6 4448 4485 4486 4559 4560 4596
4524 5 4449 4486 4487 4560 4561
4525 5 4451 4488 4489 4562 4597
4526 6 4452 4489 4490 4562 4563 4598
4527 6 4453 4490 4491 4563 4564 4599
4528 6 4454 4491 4492 4564 4565 4600
4529 6 4455 4492 4493 4565 4566 4601
4530 6 4456 4493 4494 4566 4567 4602
4531 6 4457 4494 4495 4567 4568 4603
4532 6 4458 4495 4496 4568 4569 4604
4533 6 4459 4496 4497 4569 4570 4605
4534 6 4460 4497 4498 4570 4571 4606
4535 6 4461 4498 4499 4571 4572 4607
4536 6 4462 4499 4500 4572 4573 4608
4537 6 4463 4500 4501 4573 4574 4609
4538 6 4464 4501 4502 4574 4575 4610
4539 6 4465 4502 4503 4575 4576 4611
4540 6 4466 4503 4504 4576 4577 4612
4541 6 4467 4504 4505 4577 4578 4613
4542 6 4468 4505 4506 4578 4579 4614
4543 6 4469 4506 4507 4579 4580 4615
4544 6 4470 4507 4508 4580 4581 4616
4545 6 4471 4508 4509 4581 4582 4617
4546 6 4472 4509 4510 4582 4583 4618
4547 6 4473 4510 4511 4583 4584 4619
4548 6 4474 4511 4512 4584 4585 4620
4549 6 4475 4512 4513 4585 4586 4621
4550 6 4476 4513 4514 4586 4587 4622
4551 6 4477 4514 4515 4587 4588 4623
4552 6 4478 4515 4516 4588 4589 4624
4553 6 4479 4516 4517 4589 4590 4625
4554 6 4480 4517 4518 4590 4591 4626
4555 6 4481 4518 4519 4591 4592 4627
4556 6 4482 4519 4520 4592 4593 4628
4557 6 4483 4520 4521 4593 4594 4629
4558 6 4484 4521 4522 4594 4595 4630
4559 6 4485 4522 4523 4595 4596 4631
4560 5 4486 4523 4524 4596 4632
4561 2 4487 4524
4562 6 4489 4525 4526 4597 4598 4633
4563 6 4490 4526 4527 4598 4599 4634
4564 6 4491 4527 4528 4599 4600 4635
4565 6 4492 4528 4529 4600 4601 4636
4566 6 4493 4529 4530 4601 4602 4637
4567 6 4494 4530 4531 4602 4603 4638
4568 6 4495 4531 4532 4603 4604 4639
4569 6 4496 4532 4533 4604 4605 4640
4570 6 4497 4533 4534 4605 4606 4641
4571 6 4498 4534 4535 4606 4607 4642
4572 6 4499 4535 4536 4607 4608 4643
4573 6 4500 4536 4537 4608 4609 4644
4574 6 4501 4537 4538 4609 4610 4645
4575 6 4502 4538 4539 4610 4611 4646
4576 6 4503 4539 4540 4611 4612 4647
4577 6 4504 4540 4541 4612 4613 4648
4578 6 4505 4541 4542 4613 4614 4649
4579 6 4506 4542 4543 4614 4615 4650
4580 6 4507 4543 4544 4615 4616 4651
4581 6 4508 4544 4545 4616 4617 4652
4582 6 4509 4545 4546 4617 4618 4653
4583 6 4510 4546 4547 4618 4619 4654
4584 6 4511 4547 4548 4619 4620 4655
4585 6 4512 4548 4549 4620 4621 4656
4586 6 4513 4549 4550 4621 4622 4657
4587 6 4514 4550 4551 4622 4623 4658
4588 6 4515 4551 4552 4623 4624 4659
4589 6 4516 4552 4553 4624 4625 4660
4590 6 4517 4553 4554 4625 4626 4661
4591 6 4518 4554 4555 4626 4627 4662
4592 6 4519 4555 4556 4627 4628 4663
4593 6 4520 4556 4557 4628 4629 4664
4594 6 4521 4557 4558 4629 4630 4665
4595 6 4522 4558 4559 4630 4631 4666
4596 6 4523 4559 4560 4631 4632 4667
4597 3 4525 4562 4633
4598 6 4526 4562 4563 4633 4634 4668
4599 6 4527 4563 4564 4634 4635 4669
4600 6 4528 4564 4565 4635 4636 4670
4601 6 4529 4565 4566 4636 4637 4671
4602 6 4530 4566 4567 4637 4638 4672
4603 6 4531 4567 4568 4638 4639 4673
4604 6 4532 4568 4569 4639 4640 4674
4605 6 4533 4569 4570 4640 4641 4675
4606 6 4534 4570 4571 4641 4642 4676
4607 6 4535 4571 4572 4642 4643 4677
4608 6 4536 4572 4573 4643 4644 4678
4609 6 4537 4573 4574 4644 4645 4679
4610 6 4538 4574 4575 4645 4646 4680
4611 6 4539 4575 4576 4646 4647 4681
4612 6 4540 4576 4577 4647 4648 4682
4613 6 4541 4577 4578 4648 4649 4683
4614 6 4542 4578 4579 4649 4650 4684
4615 6 4543 4579 4580 4650 4651 4685
4616 6 4544 4580 4581 4651 4652 4686
4617 6 4545 4581 4582 4652 4653 4687
4618 6 4546 4582 4583 4653 4654 4688
4619 6 4547 4583 4584 4654 4655 4689
4620 6 4548 4584 4585 4655 4656 4690
4621 6 4549 4585 4586 4656 4657 4691
4622 6 4550 4586 4587 4657 4658 4692
4623 6 4551 4587 4588 4658 4659 4693
4624 6 4552 4588 4589 4659 4660 4694
4625 6 4553 4589 4590 4660 4661 4695
4626 6 4554 4590 4591 4661 4662 4696
4627 6 4555 4591 4592 4662 4663 4697
4628 6 4556 4592 4593 4663 4664 4698
4629 6 4557 4593 4594 4664 4665 4699
4630 6 4558 4594 4595 4665 4666 4700
4631 6 4559 4595 4596 4666 4667 4701
4632 3 4560 4596 4667
4633 5 4562 4597 4598 4668 4702
4634 6 4563 4598 4599 4668 4669 4703
4635 6 4564 4599 4600 4669 4670 4704
4636 6 4565 4600 4601 4670 4671 4705
4637 6 4566 4601 4602 4671 4672 4706
4638 6 4567 4602 4603 4672 4673 4707
4639 6 4568 4603 4604 4673 4674 4708
4640 6 4569 4604 4605 4674 4675 4709
4641 6 4570 4605 4606 4675 4676 4710
4642 6 4571 4606 4607 4676 4677 4711
4643 6 4572 4607 4608 4677 4678 4712
4644 6 4573 4608 4609 4678 4679 4713
4645 6 4574 4609 4610 4679 4680 4714
4646 6 4575 4610 4611 4680 4681 4715
4647 6 4576 4611 4612 4681 4682 4716
4648 6 4577 4612 4613 4682 4683 4717
4649 6 4578 4613 4614 4683 4684 4718
4650 6 4579 4614 4615 4684 4685 4719
4651 6 4580 4615 4616 4685 4686 4720
4652 6 4581 4616 4617 4686 4687 4721
4653 6 4582 4617 4618 4687 4688 4722
4654 6 4583 4618 4619 4688 4689 4723
4655 6 4584 4619 4620 4689 4690 4724
4656 6 4585 4620 4621 4690 4691 4725
4657 6 4586 4621 4622 4691 4692 4726
4658 6 4587 4622 4623 4692 4693 4727
4659 6 4588 4623 4624 4693 4694 4728
4660 6 4589 4624 4625 4694 4695 4729
4661 6 4590 4625 4626 4695 4696 4730
4662 6 4591 4626 4627 4696 4697 4731
4663 6 4592 4627 4628 4697 4698 4732
4664 6 4593 4628 4629 4698 4699 4733
4665 6 4594 4629 4630 4699 4700 4734
4666 6 4595 4630 4631 4700 4701 4735
4667 5 4596 4631 4632 4701 4736
4668 6 4598 4633 4634 4702 4703 4737
4669 6 4599 4634 4635 4703 4704 4738
4670 6 4600 4635 4636 4704 4705 4739
4671 6 4601 4636 4637 4705 4706 4740
4672 6 4602 4637 4638 4706 4707 4741
4673 6 4603 4638 4639 4707 4708 4742
4674 6 4604 4639 4640 4708 4709 4743
4675 6 4605 4640 4641 4709 4710 4744
4676 6 4606 4641 4642 4710 4711 4745
4677 6 4607 4642 4643 4711 4712 4746
4678 6 4608 4643 4644 4712 4713 4747
4679 6 4609 4644 4645 4713 4714 4748
4680 6 4610 4645 4646 4714 4715 4749
4681 6 4611 4646 4647 4715 4716 4750
4682 6 4612 4647 4648 4716 4717 4751
4683 6 4613 4648 4649 4717 4718 4752
4684 6 4614 4649 4650 4718 4719 4753
4685 6 4615 4650 4651 4719 4720 4754
4686 6 4616 4651 4652 4720 4721 4755
4687 6 4617 4652 4653 4721 4722 4756
4688 6 4618 4653 4654 4722 4723 4757
4689 6 4619 4654 4655 4723 4724 4758
4690 6 4620 4655 4656 4724 4725 4759
4691 6 4621 4656 4657 4725 4726 4760
4692 6 4622 4657 4658 4726 4727 4761
4693 6 4623 4658 4659 4727 4728 4762
4694 6 4624 4659 4660 4728 4729 4763
4695 6 4625 4660 4661 4729 4730 4764
4696 6 4626 4661 4662 4730 4731 4765
4697 6 4627 4662 4663 4731 4732 4766
4698 6 4628 4663 4664 4732 4733 4767
4699 6 4629 4664 4665 4733 4734 4768
4700 6 4630 4665 4666 4734 4735 4769
4701 6 4631 4666 4667 4735 4736 4770
4702 4 4633 4668 4737 4772
4703 6 4634 4668 4669 4737 4738 4773
4704 6 4635 4669 4670 4738 4739 4774
4705 6 4636 4670 4671 4739 4740 4775
4706 6 4637 4671 4672 4740 4741 4776
4707 6 4638 4672 4673 4741 4742 4777
4708 6 4639 4673 4674 4742 4743 4778
4709 6 4640 4674 4675 4743 4744 4779
4710 6 4641 4675 4676 4744 4745 4780
4711 6 4642 4676 4677 4745 4746 4781
4712 6 4643 4677 4678 4746 4747 4782
4713 6 4644 4678 4679 4747 4748 4783
4714 6 4645 4679 4680 4748 4749 4784
4715 6 4646 4680 4681 4749 4750 4785
4716 6 4647 4681 4682 4750 4751 4786
4717 6 4648 4682 4683 4751 4752 4787
4718 6 4649 4683 4684 4752 4753 4788
4719 6 4650 4684 4685 4753 4754 4789
4720 6 4651 4685 4686 4754 4755 4790
4721 6 4652 4686 4687 4755 4756 4791
4722 6 4653 4687 4688 4756 4757 4792
4723 6 4654 4688 4689 4757 4758 4793
4724 6 4655 4689 4690 4758 4759 4794
4725 6 4656 4690 4691 4759 4760 4795
4726 6 4657 4691 4692 4760 4761 4796
4727 6 4658 4692 4693 4761 4762 4797
4728 6 4659 4693 4694 4762 4763 4798
4729 6 4660 4694 4695 4763 4764 4799
4730 6 4661 4695 4696 4764 4765 4800
4731 6 4662 4696 4697 4765 4766 4801
4732 6 4663 4697 4698 4766 4767 4802
4733 6 4664 4698 4699 4767 4768 4803
4734 6 4665 4699 4700 4768 4769 4804
4735 6 4666 4700 4701 4769 4770 4805
4736 5 4667 4701 4770 4771 4806
4737 6 4668 4702 4703 4772 4773 4807
4738 6 4669 4703 4704 4773 4774 4808
4739 6 4670 4704 4705 4774 4775 4809
4740 6 4671 4705 4706 4775 4776 4810
4741 6 4672 4706 4707 4776 4777 4811
4742 6 4673 4707 4708 4777 4778 4812
4743 6 4674 4708 4709 4778 4779 4813
4744 6 4675 4709 4710 4779 4780 4814
4745 6 4676 4710 4711 4780 4781 4815
4746 6 4677 4711 4712 4781 4782 4816
4747 6 4678 4712 4713 4782 4783 4817
4748 6 4679 4713 4714 4783 4784 4818
4749 6 4680 4714 4715 4784 4785 4819
4750 6 4681 4715 4716 4785 4786 4820
4751 6 4682 4716 4717 4786 4787 4821
4752 6 4683 4717 4718 4787 4788 4822
4753 6 4684 4718 4719 4788 4789 4823
4754 6 4685 4719 4720 4789 4790 4824
4755 6 4686 4720 4721 4790 4791 4825
4756 6 4687 4721 4722 4791 4792 4826
4757 6 4688 4722 4723 4792 4793 4827
4758 6 4689 4723 4724 4793 4794 4828
4759 6 4690 4724 4725 4794 4795 4829
4760 6 4691 4725 4726 4795 4796 4830
4761 6 4692 4726 4727 4796 4797 4831
4762 6 4693 4727 4728 4797 4798 4832
4763 6 4694 4728 4729 4798 4799 4833
4764 6 4695 4729 4730 4799 4800 4834
4765 6 4696 4730 4731 4800 4801 4835
4766 6 4697 4731 4732 4801 4802 4836
4767 6 4698 4732 4733 4802 4803 4837
4768 6 4699 4733 4734 4803 4804 4838
4769 6 4700 4734 4735 4804 4805 4839
4770 6 4701 4735 4736 4805 4806 4840
4771 3 4736 4806 4841
4772 4 4702 4737 4807 4842
4773 6 4703 4737 4738 4807 4808 4843
4774 6 4704 4738 4739 4808 4809 4844
4775 6 4705 4739 4740 4809 4810 4845
4776 6 4706 4740 4741 4810 4811 4846
4777 6 4707 4741 4742 4811 4812 4847
4778 6 4708 4742 4743 4812 4813 4848
4779 6 4709 4743 4744 4813 4814 4849
4780 6 4710 4744 4745 4814 4815 4850
4781 6 4711 4745 4746 4815 4816 4851
4782 6 4712 4746 4747 4816 4817 4852
4783 6 4713 4747 4748 4817 4818 4853
4784 6 4714 4748 4749 4818 4819 4854
4785 6 4715 4749 4750 4819 4820 4855
4786 6 4716 4750 4751 4820 4821 4856
4787 6 4717 4751 4752 4821 4822 4857
4788 6 4718 4752 4753 4822 4823 4858
4789 6 4719 4753 4754 4823 4824 4859
4790 6 4720 4754 4755 4824 4825 4860
4791 6 4721 4755 4756 4825 4826 4861
4792 6 4722 4756 4757 4826 4827 4862
4793 6 4723 4757 4758 4827 4828 4863
4794 6 4724 4758 4759 4828 4829 4864
4795 6 4725 4759 4760 4829 4830 4865
4796 6 4726 4760 4761 4830 4831 4866
4797 6 4727 4761 4762 4831 4832 4867
4798 6 4728 4762 4763 4832 4833 4868
4799 6 4729 4763 4764 4833 4834 4869
4800 6 4730 4764 4765 4834 4835 4870
4801 6 4731 4765 4766 4835 4836 4871
4802 6 4732 4766 4767 4836 4837 4872
4803 6 4733 4767 4768 4837 4838 4873
4804 6 4734 4768 4769 4838 4839 4874
4805 6 4735 4769 4770 4839 4840 4875
4806 6 4736 4770 4771 4840 4841 4876
4807 6 4737 4772 4773 4842 4843 4877
4808 6 4738 4773 4774 4843 4844 4878
4809 6 4739 4774 4775 4844 4845 4879
4810 6 4740 4775 4776 4845 4846 4880
4811 6 4741 4776 4777 4846 4847 4881
4812 6 4742 4777 4778 4847 4848 4882
4813 6 4743 4778 4779 4848 4849 4883
4814 6 4744 4779 4780 4849 4850 4884
4815 6 4745 4780 4781 4850 4851 4885
4816 6 4746 4781 4782 4851 4852 4886
4817 6 4747 4782 4783 4852 4853 4887
4818 6 4748 4783 4784 4853 4854 4888
4819 6 4749 4784 4785 4854 4855 4889
4820 6 4750 4785 4786 4855 4856 4890
4821 6 4751 4786 4787 4856 4857 4891
4822 6 4752 4787 4788 4857 4858 4892
4823 6 4753 4788 4789 4858 4859 4893
4824 6 4754 4789 4790 4859 4860 4894
4825 6 4755 4790 4791 4860 4861 4895
4826 6 4756 4791 4792 4861 4862 4896
4827 6 4757 4792 4793 4862 4863 4897
4828 6 4758 4793 4794 4863 4864 4898
4829 6 4759 4794 4795 4864 4865 4899
4830 6 4760 4795 4796 4865 4866 4900
4831 6 4761 4796 4797 4866 4867 4901
4832 6 4762 4797 4798 4867 4868 4902
4833 6 4763 4798 4799 4868 4869 4903
4834 6 4764 4799 4800 4869 4870 4904
4835 6 4765 4800 4801 4870 4871 4905
4836 6 4766 4801 4802 4871 4872 4906
4837 6 4767 4802 4803 4872 4873 4907
4838 6 4768 4803 4804 4873 4874 4908
4839 6 4769 4804 4805 4874 4875 4909
4840 6 4770 4805 4806 4875 4876 4910
4841 3 4771 4806 4876
4842 4 4772 4807 4877 4911
4843 6 4773 4807 4808 4877 4878 4912
4844 6 4774 4808 4809 4878 4879 4913
4845 6 4775 4809 4810 4879 4880 4914
4846 6 4776 4810 4811 4880 4881 4915
4847 6 4777 4811 4812 4881 4882 4916
4848 6 4778 4812 4813 4882 4883 4917
4849 6 4779 4813 4814 4883 4884 4918
4850 6 4780 4814 4815 4884 4885 4919
4851 6 4781 4815 4816 4885 4886 4920
4852 6 4782 4816 4817 4886 4887 4921
4853 6 4783 4817 4818 4887 4888 4922
4854 6 4784 4818 4819 4888 4889 4923
4855 6 4785 4819 4820 4889 4890 4924
4856 6 4786 4820 4821 4890 4891 4925
4857 6 4787 4821 4822 4891 4892 4926
4858 6 4788 4822 4823 4892 4893 4927
4859 6 4789 4823 4824 4893 4894 4928
4860 6 4790 4824 4825 4894 4895 4929
4861 6 4791 4825 4826 4895 4896 4930
4862 6 4792 4826 4827 4896 4897 4931
4863 6 4793 4827 4828 4897 4898 4932
4864 6 4794 4828 4829 4898 4899 4933
4865 6 4795 4829 4830 4899 4900 4934
4866 6 4796 4830 4831 4900 4901 4935
4867 6 4797 4831 4832 4901 4902 4936
4868 6 4798 4832 4833 4902 4903 4937
4869 6 4799 4833 4834 4903 4904 4938
4870 6 4800 4834 4835 4904 4905 4939
4871 6 4801 4835 4836 4905 4906 4940
4872 6 4802 4836 4837 4906 4907 4941
4873 6 4803 4837 4838 4907 4908 4942
4874 6 4804 4838 4839 4908 4909 4943
4875 6 4805 4839 4840 4909 4910 4944
4876 5 4806 4840 4841 4910 4945
4877 6 4807 4842 4843 4911 4912 4946
4878 6 4808 4843 4844 4912 4913 4947
4879 6 4809 4844 4845 4913 4914 4948
4880 6 4810 4845 4846 4914 4915 4949
4881 6 4811 4846 4847 4915 4916 4950
4882 6 4812 4847 4848 4916 4917 4951
4883 6 4813 4848 4849 4917 4918 4952
4884 6 4814 4849 4850 4918 4919 4953
4885 6 4815 4850 4851 4919 4920 4954
4886 6 4816 4851 4852 4920 4921 4955
4887 6 4817 4852 4853 4921 4922 4956
4888 6 4818 4853 4854 4922 4923 4957
4889 6 4819 4854 4855 4923 4924 4958
4890 6 4820 4855 4856 4924 4925 4959
4891 6 4821 4856 4857 4925 4926 4960
4892 6 4822 4857 4858 4926 4927 4961
4893 6 4823 4858 4859 4927 4928 4962
4894 6 4824 4859 4860 4928 4929 4963
4895 6 4825 4860 4861 4929 4930 4964
4896 6 4826 4861 4862 4930 4931 4965
4897 6 4827 4862 4863 4931 4932 4966
4898 6 4828 4863 4864 4932 4933 4967
4899 6 4829 4864 4865 4933 4934 4968
4900 6 4830 4865 4866 4934 4935 4969
4901 6 4831 4866 4867 4935 4936 4970
4902 6 4832 4867 4868 4936 4937 4971
4903 6 4833 4868 4869 4937 4938 4972
4904 6 4834 4869 4870 4938 4939 4973
4905 6 4835 4870 4871 4939 4940 4974
4906 6 4836 4871 4872 4940 4941 4975
4907 6 4837 4872 4873 4941 4942 4976
4908 6 4838 4873 4874 4942 4943 4977
4909 6 4839 4874 4875 4943 4944 4978
4910 6 4840 4875 4876 4944 4945 4979
4911 4 4842 4877 4946 4980
4912 6 4843 4877 4878 4946 4947 4981
4913 6 4844 4878 4879 4947 4948 4982
4914 6 4845 4879 4880 4948 4949 4983
4915 6 4846 4880 4881 4949 4950 4984
4916 6 4847 4881 4882 4950 4951 4985
4917 6 4848 4882 4883 4951 4952 4986
4918 6 4849 4883 4884 4952 4953 4987
4919 6 4850 4884 4885 4953 4954 4988
4920 6 4851 4885 4886 4954 4955 4989
4921 6 4852 4886 4887 4955 4956 4990
4922 6 4853 4887 4888 4956 4957 4991
4923 6 4854 4888 4889 4957 4958 4992
4924 6 4855 4889 4890 4958 4959 4993
4925 6 4856 4890 4891 4959 4960 4994
4926 6 4857 4891 4892 4960 4961 4995
4927 6 4858 4892 4893 4961 4962 4996
4928 6 4859 4893 4894 4962 4963 4997
4929 6 4860 4894 4895 4963 4964 4998
4930 6 4861 4895 4896 4964 4965 4999
4931 6 4862 4896 4897 4965 4966 5000
4932 6 4863 4897 4898 4966 4967 5001
4933 6 4864 4898 4899 4967 4968 5002
4934 6 4865 4899 4900 4968 4969 5003
4935 6 4866 4900 4901 4969 4970 5004
4936 6 4867 4901 4902 4970 4971 5005
4937 6 4868 4902 4903 4971 4972 5006
4938 6 4869 4903 4904 4972 4973 5007
4939 6 4870 4904 4905 4973 4974 5008
4940 6 4871 4905 4906 4974 4975 5009
4941 6 4872 4906 4907 4975 4976 5010
4942 6 4873 4907 4908 4976 4977 5011
4943 6 4874 4908 4909 4977 4978 5012
4944 6 4875 4909 4910 4978 4979 5013
4945 3 4876 4910 4979
4946 6 4877 4911 4912 4980 4981 5014
4947 6 4878 4912 4913 4981 4982 5015
4948 6 4879 4913 4914 4982 4983 5016
4949 6 4880 4914 4915 4983 4984 5017
4950 6 4881 4915 4916 4984 4985 5018
4951 6 4882 4916 4917 4985 4986 5019
4952 6 4883 4917 4918 4986 4987 5020
4953 6 4884 4918 4919 4987 4988 5021
4954 6 4885 4919 4920 4988 4989 5022
4955 6 4886 4920 4921 4989 4990 5023
4956 6 4887 4921 4922 4990 4991 5024
4957 6 4888 4922 4923 4991 4992 5025
4958 6 4889 4923 4924 4992 4993 5026
4959 6 4890 4924 4925 4993 4994 5027
4960 6 4891 4925 4926 4994 4995 5028
4961 6 4892 4926 4927 4995 4996 5029
4962 6 4893 4927 4928 4996 4997 5030
4963 6 4894 4928 4929 4997 4998 5031
4964 6 4895 4929 4930 4998 4999 5032
4965 6 4896 4930 4931 4999 5000 5033
4966 6 4897 4931 4932 5000 5001 5034
4967 6 4898 4932 4933 5001 5002 5035
4968 6 4899 4933 4934 5002 5003 5036
4969 6 4900 4934 4935 5003 5004 5037
4970 6 4901 4935 4936 5004 5005 5038
4971 6 4902 4936 4937 5005 5006 5039
4972 6 4903 4937 4938 5006 5007 5040
4973 6 4904 4938 4939 5007 5008 5041
4974 6 4905 4939 4940 5008 5009 5042
4975 6 4906 4940 4941 5009 5010 5043
4976 6 4907 4941 4942 5010 5011 5044
4977 6 4908 4942 4943 5011 5012 5045
4978 6 4909 4943 4944 5012 5013 5046
4979 5 4910 4944 4945 5013 5047
4980 4 4911 4946 5014 5048
4981 6 4912 4946 4947 5014 5015 5049
4982 6 4913 4947 4948 5015 5016 5050
4983 6 4914 4948 4949 5016 5017 5051
4984 6 4915 4949 4950 5017 5018 5052
4985 6 4916 4950 4951 5018 5019 5053
4986 6 4917 4951 4952 5019 5020 5054
4987 6 4918 4952 4953 5020 5021 5055
4988 6 4919 4953 4954 5021 5022 5056
4989 6 4920 4954 4955 5022 5023 5057
4990 6 4921 4955 4956 5023 5024 5058
4991 6 4922 4956 4957 5024 5025 5059
4992 6 4923 4957 4958 5025 5026 5060
4993 6 4924 4958 4959 5026 5027 5061
4994 6 4925 4959 4960 5027 5028 5062
4995 6 4926 4960 4961 5028 5029 5063
4996 6 4927 4961 4962 5029 5030 5064
4997 6 4928 4962 4963 5030 5031 5065
4998 6 4929 4963 4964 5031 5032 5066
4999 6 4930 4964 4965 5032 5033 5067
5000 6 4931 4965 4966 5033 5034 5068
5001 6 4932 4966 4967 5034 5035 5069
5002 6 4933 4967 4968 5035 5036 5070
5003 6 4934 4968 4969 5036 5037 5071
5004 6 4935 4969 4970 5037 5038 5072
5005 6 4936 4970 4971 5038 5039 5073
5006 6 4937 4971 4972 5039 5040 5074
5007 6 4938 4972 4973 5040 5041 5075
5008 6 4939 4973 4974 5041 5042 5076
5009 6 4940 4974 4975 5042 5043 5077
5010 6 4941 4975 4976 5043 5044 5078
5011 6 4942 4976 4977 5044 5045 5079
5012 6 4943 4977 4978 5045 5046 5080
5013 6 4944 4978 4979 5046 5047 5081
5014 6 4946 4980 4981 5048 5049 5082
5015 6 4947 4981 4982 5049 5050 5083
5016 6 4948 4982 4983 5050 5051 5084
5017 6 4949 4983 4984 5051 5052 5085
5018 6 4950 4984 4985 5052 5053 5086
5019 6 4951 4985 4986 5053 5054 5087
5020 6 4952 4986 4987 5054 5055 5088
5021 6 4953 4987 4988 5055 5056 5089
5022 6 4954 4988 4989 5056 5057 5090
5023 6 4955 4989 4990 5057 5058 5091
5024 6 4956 4990 4991 5058 5059 5092
5025 6 4957 4991 4992 5059 5060 5093
5026 6 4958 4992 4993 5060 5061 5094
5027 6 4959 4993 4994 5061 5062 5095
5028 6 4960 4994 4995 5062 5063 5096
5029 6 4961 4995 4996 5063 5064 5097
5030 6 4962 4996 4997 5064 5065 5098
5031 6 4963 4997 4998 5065 5066 5099
5032 6 4964 4998 4999 5066 5067 5100
5033 6 4965 4999 5000 5067 5068 5101
5034 6 4966 5000 5001 5068 5069 5102
5035 6 4967 5001 5002 5069 5070 5103
5036 6 4968 5002 5003 5070 5071 5104
5037 6 4969 5003 5004 5071 5072 5105
5038 6 4970 5004 5005 5072 5073 5106
5039 6 4971 5005 5006 5073 5074 5107
5040 6 4972 5006 5007 5074 5075 5108
5041 6 4973 5007 5008 5075 5076 5109
5042 6 4974 5008 5009 5076 5077 5110
5043 6 4975 5009 5010 5077 5078 5111
5044 6 4976 5010 5011 5078 5079 5112
5045 6 4977 5011 5012 5079 5080 5113
5046 6 4978 5012 5013 5080 5081 5114
5047 4 4979 5013 5081 5115
5048 4 4980 5014 5082 5116
5049 6 4981 5014 5015 5082 5083 5117
5050 6 4982 5015 5016 5083 5084 5118
5051 6 4983 5016 5017 5084 5085 5119
5052 6 4984 5017 5018 5085 5086 5120
5053 6 4985 5018 5019 5086 5087 5121
5054 6 4986 5019 5020 5087 5088 5122
5055 6 4987 5020 5021 5088 5089 5123
5056 6 4988 5021 5022 5089 5090 5124
5057 6 4989 5022 5023 5090 5091 5125
5058 6 4990 5023 5024 5091 5092 5126
5059 6 4991 5024 5025 5092 5093 5127
5060 6 4992 5025 5026 5093 5094 5128
5061 6 4993 5026 5027 5094 5095 5129
5062 6 4994 5027 5028 5095 5096 5130
5063 6 4995 5028 5029 5096 5097 5131
5064 6 4996 5029 5030 5097 5098 5132
5065 6 4997 5030 5031 5098 5099 5133
5066 6 4998 5031 5032 5099 5100 5134
5067 6 4999 5032 5033 5100 5101 5135
5068 6 5000 5033 5034 5101 5102 5136
5069 6 5001 5034 5035 5102 5103 5137
5070 6 5002 5035 5036 5103 5104 5138
5071 6 5003 5036 5037 5104 5105 5139
5072 6 5004 5037 5038 5105 5106 5140
5073 6 5005 5038 5039 5106 5107 5141
5074 6 5006 5039 5040 5107 5108 5142
5075 6 5007 5040 5041 5108 5109 5143
5076 6 5008 5041 5042 5109 5110 5144
5077 6 5009 5042 5043 5110 5111 5145
5078 6 5010 5043 5044 5111 5112 5146
5079 6 5011 5044 5045 5112 5113 5147
5080 5 5012 5045 5046 5113 5114
5081 6 5013 5046 5047 5114 5115 5148
5082 6 5014 5048 5049 5116 5117 5149
5083 6 5015 5049 5050 5117 5118 5150
5084 6 5016 5050 5051 5118 5119 5151
5085 6 5017 5051 5052 5119 5120 5152
5086 6 5018 5052 5053 5120 5121 5153
5087 6 5019 5053 5054 5121 5122 5154
5088 6 5020 5054 5055 5122 5123 5155
5089 6 5021 5055 5056 5123 5124 5156
5090 6 5022 5056 5057 5124 5125 5157
5091 6 5023 5057 5058 5125 5126 5158
5092 6 5024 5058 5059 5126 5127 5159
5093 6 5025 5059 5060 5127 5128 5160
5094 6 5026 5060 5061 5128 5129 5161
5095 6 5027 5061 5062 5129 5130 5162
5096 6 5028 5062 5063 5130 5131 5163
5097 6 5029 5063 5064 5131 5132 5164
5098 6 5030 5064 5065 5132 5133 5165
5099 6 5031 5065 5066 5133 5134 5166
5100 6 5032 5066 5067 5134 5135 5167
5101 6 5033 5067 5068 5135 5136 5168
5102 6 5034 5068 5069 5136 5137 5169
5103 6 5035 5069 5070 5137 5138 5170
5104 6 5036 5070 5071 5138 5139 5171
5105 6 5037 5071 5072 5139 5140 5172
5106 6 5038 5072 5073 5140 5141 5173
5107 6 5039 5073 5074 5141 5142 5174
5108 6 5040 5074 5075 5142 5143 5175
5109 6 5041 5075 5076 5143 5144 5176
5110 6 5042 5076 5077 5144 5145 5177
5111 6 5043 5077 5078 5145 5146 5178
5112 6 5044 5078 5079 5146 5147 5179
5113 5 5045 5079 5080 5147 5180
5114 4 5046 5080 5081 5148
5115 4 5047 5081 5148 5181
5116 4 5048 5082 5149 5182
5117 6 5049 5082 5083 5149 5150 5183
5118 6 5050 5083 5084 5150 5151 5184
5119 6 5051 5084 5085 5151 5152 5185
5120 6 5052 5085 5086 5152 5153 5186
5121 6 5053 5086 5087 5153 5154 5187
5122 6 5054 5087 5088 5154 5155 5188
5123 6 5055 5088 5089 5155 5156 5189
5124 6 5056 5089 5090 5156 5157 5190
5125 6 5057 5090 5091 5157 5158 5191
5126 6 5058 5091 5092 5158 5159 5192
5127 6 5059 5092 5093 5159 5160 5193
5128 6 5060 5093 5094 5160 5161 5194
5129 6 5061 5094 5095 5161 5162 5195
5130 6 5062 5095 5096 5162 5163 5196
5131 6 5063 5096 5097 5163 5164 5197
5132 6 5064 5097 5098 5164 5165 5198
5133 6 5065 5098 5099 5165 5166 5199
5134 6 5066 5099 5100 5166 5167 5200
5135 6 5067 5100 5101 5167 5168 5201
5136 6 5068 5101 5102 5168 5169 5202
5137 6 5069 5102 5103 5169 5170 5203
5138 6 5070 5103 5104 5170 5171 5204
5139 6 5071 5104 5105 5171 5172 5205
5140 6 5072 5105 5106 5172 5173 5206
5141 6 5073 5106 5107 5173 5174 5207
5142 6 5074 5107 5108 5174 5175 5208
5143 6 5075 5108 5109 5175 5176 5209
5144 6 5076 5109 5110 5176 5177 5210
5145 6 5077 5110 5111 5177 5178 5211
5146 6 5078 5111 5112 5178 5179 5212
5147 6 5079 5112 5113 5179 5180 5213
5148 5 5081 5114 5115 5181 5214
5149 6 5082 5116 5117 5182 5183 5216
5150 6 5083 5117 5118 5183 5184 5217
5151 6 5084 5118 5119 5184 5185 5218
5152 6 5085 5119 5120 5185 5186 5219
5153 6 5086 5120 5121 5186 5187 5220
5154 6 5087 5121 5122 5187 5188 5221
5155 6 5088 5122 5123 5188 5189 5222
5156 6 5089 5123 5124 5189 5190 5223
5157 6 5090 5124 5125 5190 5191 5224
5158 6 5091 5125 5126 5191 5192 5225
5159 6 5092 5126 5127 5192 5193 5226
5160 6 5093 5127 5128 5193 5194 5227
5161 6 5094 5128 5129 5194 5195 5228
5162 6 5095 5129 5130 5195 5196 5229
5163 6 5096 5130 5131 5196 5197 5230
5164 6 5097 5131 5132 5197 5198 5231
5165 6 5098 5132 5133 5198 5199 5232
5166 6 5099 5133 5134 5199 5200 5233
5167 6 5100 5134 5135 5200 5201 5234
5168 6 5101 5135 5136 5201 5202 5235
5169 6 5102 5136 5137 5202 5203 5236
5170 6 5103 5137 5138 5203 5204 5237
5171 6 5104 5138 5139 5204 5205 5238
5172 6 5105 5139 5140 5205 5206 5239
5173 6 5106 5140 5141 5206 5207 5240
5174 6 5107 5141 5142 5207 5208 5241
5175 6 5108 5142 5143 5208 5209 5242
5176 6 5109 5143 5144 5209 5210 5243
5177 6 5110 5144 5145 5210 5211 5244
5178 6 5111 5145 5146 5211 5212 5245
5179 6 5112 5146 5147 5212 5213 5246
5180 3 5113 5147 5213
5181 4 5115 5148 5214 5247
5182 5 5116 5149 5215 5216 5249
5183 6 5117 5149 5150 5216 5217 5250
5184 6 5118 5150 5151 5217 5218 5251
5185 6 5119 5151 5152 5218 5219 5252
5186 6 5120 5152 5153 5219 5220 5253
5187 6 5121 5153 5154 5220 5221 5254
5188 6 5122 5154 5155 5221 5222 5255
5189 6 5123 5155 5156 5222 5223 5256
5190 6 5124 5156 5157 5223 5224 5257
5191 6 5125 5157 5158 5224 5225 5258
5192 6 5126 5158 5159 5225 5226 5259
5193 6 5127 5159 5160 5226 5227 5260
5194 6 5128 5160 5161 5227 5228 5261
5195 6 5129 5161 5162 5228 5229 5262
5196 6 5130 5162 5163 5229 5230 5263
5197 6 5131 5163 5164 5230 5231 5264
5198 6 5132 5164 5165 5231 5232 5265
5199 6 5133 5165 5166 5232 5233 5266
5200 6 5134 5166 5167 5233 5234 5267
5201 6 5135 5167 5168 5234 5235 5268
5202 6 5136 5168 5169 5235 5236 5269
5203 6 5137 5169 5170 5236 5237 5270
5204 6 5138 5170 5171 5237 5238 5271
5205 6 5139 5171 5172 5238 5239 5272
5206 6 5140 5172 5173 5239 5240 5273
5207 6 5141 5173 5174 5240 5241 5274
5208 6 5142 5174 5175 5241 5242 5275
5209 6 5143 5175 5176 5242 5243 5276
5210 6 5144 5176 5177 5243 5244 5277
5211 6 5145 5177 5178 5244 5245 5278
5212 6 5146 5178 5179 5245 5246 5279
5213 5 5147 5179 5180 5246 5280
5214 4 5148 5181 5247 5281
5215 4 5182 5248 5249 5282
5216 6 5149 5182 5183 5249 5250 5283
5217 6 5150 5183 5184 5250 5251 5284
5218 6 5151 5184 5185 5251 5252 5285
5219 6 5152 5185 5186 5252 5253 5286
5220 6 5153 5186 5187 5253 5254 5287
5221 6 5154 5187 5188 5254 5255 5288
5222 6 5155 5188 5189 5255 5256 5289
5223 6 5156 5189 5190 5256 5257 5290
5224 6 5157 5190 5191 5257 5258 5291
5225 6 5158 5191 5192 5258 5259 5292
5226 6 5159 5192 5193 5259 5260 5293
5227 6 5160 5193 5194 5260 5261 5294
5228 6 5161 5194 5195 5261 5262 5295
5229 6 5162 5195 5196 5262 5263 5296
5230 6 5163 5196 5197 5263 5264 5297
5231 6 5164 5197 5198 5264 5265 5298
5232 6 5165 5198 5199 5265 5266 5299
5233 6 5166 5199 5200 5266 5267 5300
5234 6 5167 5200 5201 5267 5268 5301
5235 6 5168 5201 5202 5268 5269 5302
5236 6 5169 5202 5203 5269 5270 5303
5237 6 5170 5203 5204 5270 5271 5304
5238 6 5171 5204 5205 5271 5272 5305
5239 6 5172 5205 5206 5272 5273 5306
5240 6 5173 5206 5207 5273 5274 5307
5241 6 5174 5207 5208 5274 5275 5308
5242 6 5175 5208 5209 5275 5276 5309
5243 6 5176 5209 5210 5276 5277 5310
5244 6 5177 5210 5211 5277 5278 5311
5245 6 5178 5211 5212 5278 5279 5312
5246 6 5179 5212 5213 5279 5280 5313
5247 4 5181 5214 5281 5315
5248 3 5215 5282 5316
5249 6 5182 5215 5216 5282 5283 5317
5250 6 5183 5216 5217 5283 5284 5318
5251 6 5184 5217 5218 5284 5285 5319
5252 6 5185 5218 5219 5285 5286 5320
5253 6 5186 5219 5220 5286 5287 5321
5254 6 5187 5220 5221 5287 5288 5322
5255 6 5188 5221 5222 5288 5289 5323
5256 6 5189 5222 5223 5289 5290 5324
5257 6 5190 5223 5224 5290 5291 5325
5258 6 5191 5224 5225 5291 5292 5326
5259 6 5192 5225 5226 5292 5293 5327
5260 6 5193 5226 5227 5293 5294 5328
5261 6 5194 5227 5228 5294 5295 5329
5262 6 5195 5228 5229 5295 5296 5330
5263 6 5196 5229 5230 5296 5297 5331
5264 6 5197 5230 5231 5297 5298 5332
5265 6 5198 5231 5232 5298 5299 5333
5266 6 5199 5232 5233 5299 5300 5334
5267 6 5200 5233 5234 5300 5301 5335
5268 6 5201 5234 5235 5301 5302 5336
5269 6 5202 5235 5236 5302 5303 5337
5270 6 5203 5236 5237 5303 5304 5338
5271 6 5204 5237 5238 5304 5305 5339
5272 6 5205 5238 5239 5305 5306 5340
5273 6 5206 5239 5240 5306 5307 5341
5274 6 5207 5240 5241 5307 5308 5342
5275 6 5208 5241 5242 5308 5309 5343
5276 6 5209 5242 5243 5309 5310 5344
5277 6 5210 5243 5244 5310 5311 5345
5278 6 5211 5244 5245 5311 5312 5346
5279 6 5212 5245 5246 5312 5313 5347
5280 5 5213 5246 5313 5314 5348
5281 4 5214 5247 5315 5349
5282 6 5215 5248 5249 5316 5317 5350
5283 6 5216 5249 5250 5317 5318 5351
5284 6 5217 5250 5251 5318 5319 5352
5285 6 5218 5251 5252 5319 5320 5353
5286 6 5219 5252 5253 5320 5321 5354
5287 6 5220 5253 5254 5321 5322 5355
5288 6 5221 5254 5255 5322 5323 5356
5289 6 5222 5255 5256 5323 5324 5357
5290 6 5223 5256 5257 5324 5325 5358
5291 6 5224 5257 5258 5325 5326 5359
5292 6 5225 5258 5259 5326 5327 5360
5293 6 5226 5259 5260 5327 5328 5361
5294 6 5227 5260 5261 5328 5329 5362
5295 6 5228 5261 5262 5329 5330 5363
5296 6 5229 5262 5263 5330 5331 5364
5297 6 5230 5263 5264 5331 5332 5365
5298 6 5231 5264 5265 5332 5333 5366
5299 6 5232 5265 5266 5333 5334 5367
5300 6 5233 5266 5267 5334 5335 5368
5301 6 5234 5267 5268 5335 5336 5369
5302 6 5235 5268 5269 5336 5337 5370
5303 6 5236 5269 5270 5337 5338 5371
5304 6 5237 5270 5271 5338 5339 5372
5305 6 5238 5271 5272 5339 5340 5373
5306 6 5239 5272 5273 5340 5341 5374
5307 6 5240 5273 5274 5341 5342 5375
5308 6 5241 5274 5275 5342 5343 5376
5309 6 5242 5275 5276 5343 5344 5377
5310 6 5243 5276 5277 5344 5345 5378
5311 6 5244 5277 5278 5345 5346 5379
5312 6 5245 5278 5279 5346 5347 5380
5313 6 5246 5279 5280 5347 5348 5381
5314 3 5280 5348 5382
5315 4 5247 5281 5349 5383
5316 4 5248 5282 5350 5384
5317 6 5249 5282 5283 5350 5351 5385
5318 6 5250 5283 5284 5351 5352 5386
5319 6 5251 5284 5285 5352 5353 5387
5320 6 5252 5285 5286 5353 5354 5388
5321 6 5253 5286 5287 5354 5355 5389
5322 6 5254 5287 5288 5355 5356 5390
5323 6 5255 5288 5289 5356 5357 5391
5324 6 5256 5289 5290 5357 5358 5392
5325 6 5257 5290 5291 5358 5359 5393
5326 6 5258 5291 5292 5359 5360 5394
5327 6 5259 5292 5293 5360 5361 5395
5328 6 5260 5293 5294 5361 5362 5396
5329 6 5261 5294 5295 5362 5363 5397
5330 6 5262 5295 5296 5363 5364 5398
5331 6 5263 5296 5297 5364 5365 5399
5332 6 5264 5297 5298 5365 5366 5400
5333 6 5265 5298 5299 5366 5367 5401
5334 6 5266 5299 5300 5367 5368 5402
5335 6 5267 5300 5301 5368 5369 5403
5336 6 5268 5301 5302 5369 5370 5404
5337 6 5269 5302 5303 5370 5371 5405
5338 6 5270 5303 5304 5371 5372 5406
5339 6 5271 5304 5305 5372 5373 5407
5340 6 5272 5305 5306 5373 5374 5408
5341 6 5273 5306 5307 5374 5375 5409
5342 6 5274 5307 5308 5375 5376 5410
5343 6 5275 5308 5309 5376 5377 5411
5344 6 5276 5309 5310 5377 5378 5412
5345 6 5277 5310 5311 5378 5379 5413
5346 6 5278 5311 5312 5379 5380 5414
5347 6 5279 5312 5313 5380 5381 5415
5348 6 5280 5313 5314 5381 5382 5416
5349 3 5281 5315 5383
5350 6 5282 5316 5317 5384 5385 5419
5351 6 5283 5317 5318 5385 5386 5420
5352 6 5284 5318 5319 5386 5387 5421
5353 6 5285 5319 5320 5387 5388 5422
5354 6 5286 5320 5321 5388 5389 5423
5355 6 5287 5321 5322 5389 5390 5424
5356 6 5288 5322 5323 5390 5391 5425
5357 6 5289 5323 5324 5391 5392 5426
5358 6 5290 5324 5325 5392 5393 5427
5359 6 5291 5325 5326 5393 5394 5428
5360 6 5292 5326 5327 5394 5395 5429
5361 6 5293 5327 5328 5395 5396 5430
5362 6 5294 5328 5329 5396 5397 5431
5363 6 5295 5329 5330 5397 5398 5432
5364 6 5296 5330 5331 5398 5399 5433
5365 6 5297 5331 5332 5399 5400 5434
5366 6 5298 5332 5333 5400 5401 5435
5367 6 5299 5333 5334 5401 5402 5436
5368 6 5300 5334 5335 5402 5403 5437
5369 6 5301 5335 5336 5403 5404 5438
5370 6 5302 5336 5337 5404 5405 5439
5371 6 5303 5337 5338 5405 5406 5440
5372 6 5304 5338 5339 5406 5407 5441
5373 6 5305 5339 5340 5407 5408 5442
5374 6 5306 5340 5341 5408 5409 5443
5375 6 5307 5341 5342 5409 5410 5444
5376 6 5308 5342 5343 5410 5411 5445
5377 6 5309 5343 5344 5411 5412 5446
5378 6 5310 5344 5345 5412 5413 5447
5379 6 5311 5345 5346 5413 5414 5448
5380 6 5312 5346 5347 5414 5415 5449
5381 6 5313 5347 5348 5415 5416 5450
5382 5 5314 5348 5416 5417 5451
5383 4 5315 5349 5418 5453
5384 3 5316 5350 5419
5385 6 5317 5350 5351 5419 5420 5454
5386 6 5318 5351 5352 5420 5421 5455
5387 6 5319 5352 5353 5421 5422 5456
5388 6 5320 5353 5354 5422 5423 5457
5389 6 5321 5354 5355 5423 5424 5458
5390 6 5322 5355 5356 5424 5425 5459
5391 6 5323 5356 5357 5425 5426 5460
5392 6 5324 5357 5358 5426 5427 5461
5393 6 5325 5358 5359 5427 5428 5462
5394 6 5326 5359 5360 5428 5429 5463
5395 6 5327 5360 5361 5429 5430 5464
5396 6 5328 5361 5362 5430 5431 5465
5397 6 5329 5362 5363 5431 5432 5466
5398 6 5330 5363 5364 5432 5433 5467
5399 6 5331 5364 5365 5433 5434 5468
5400 6 5332 5365 5366 5434 5435 5469
5401 6 5333 5366 5367 5435 5436 5470
5402 6 5334 5367 5368 5436 5437 5471
5403 6 5335 5368 5369 5437 5438 5472
5404 6 5336 5369 5370 5438 5439 5473
5405 6 5337 5370 5371 5439 5440 5474
5406 6 5338 5371 5372 5440 5441 5475
5407 6 5339 5372 5373 5441 5442 5476
5408 6 5340 5373 5374 5442 5443 5477
5409 6 5341 5374 5375 5443 5444 5478
5410 6 5342 5375 5376 5444 5445 5479
5411 6 5343 5376 5377 5445 5446 5480
5412 6 5344 5377 5378 5446 5447 5481
5413 6 5345 5378 5379 5447 5448 5482
5414 6 5346 5379 5380 5448 5449 5483
5415 6 5347 5380 5381 5449 5450 5484
5416 6 5348 5381 5382 5450 5451 5485
5417 4 5382 5451 5452 5486
5418 3 5383 5453 5487
5419 5 5350 5384 5385 5454 5488
5420 6 5351 5385 5386 5454 5455 5489
5421 6 5352 5386 5387 5455 5456 5490
5422 6 5353 5387 5388 5456 5457 5491
5423 6 5354 5388 5389 5457 5458 5492
5424 6 5355 5389 5390 5458 5459 5493
5425 6 5356 5390 5391 5459 5460 5494
5426 6 5357 5391 5392 5460 5461 5495
5427 6 5358 5392 5393 5461 5462 5496
5428 6 5359 5393 5394 5462 5463 5497
5429 6 5360 5394 5395 5463 5464 5498
5430 6 5361 5395 5396 5464 5465 5499
5431 6 5362 5396 5397 5465 5466 5500
5432 6 5363 5397 5398 5466 5467 5501
5433 6 5364 5398 5399 5467 5468 5502
5434 6 5365 5399 5400 5468 5469 5503
5435 6 5366 5400 5401 5469 5470 5504
5436 6 5367 5401 5402 5470 5471 5505
5437 6 5368 5402 5403 5471 5472 5506
5438 6 5369 5403 5404 5472 5473 5507
5439 6 5370 5404 5405 5473 5474 5508
5440 6 5371 5405 5406 5474 5475 5509
5441 6 5372 5406 5407 5475 5476 5510
5442 6 5373 5407 5408 5476 5477 5511
5443 6 5374 5408 5409 5477 5478 5512
5444 6 5375 5409 5410 5478 5479 5513
5445 6 5376 5410 5411 5479 5480 5514
5446 6 5377 5411 5412 5480 5481 5515
5447 6 5378 5412 5413 5481 5482 5516
5448 6 5379 5413 5414 5482 5483 5517
5449 6 5380 5414 5415 5483 5484 5518
5450 6 5381 5415 5416 5484 5485 5519
5451 6 5382 5416 5417 5485 5486 5520
5452 3 5417 5486 5521
5453 3 5383 5418 5487
5454 6 5385 5419 5420 5488 5489 5522
5455 6 5386 5420 5421 5489 5490 5523
5456 6 5387 5421 5422 5490 5491 5524
5457 6 5388 5422 5423 5491 5492 5525
5458 6 5389 5423 5424 5492 5493 5526
5459 6 5390 5424 5425 5493 5494 5527
5460 6 5391 5425 5426 5494 5495 5528
5461 6 5392 5426 5427 5495 5496 5529
5462 6 5393 5427 5428 5496 5497 5530
5463 6 5394 5428 5429 5497 5498 5531
5464 6 5395 5429 5430 5498 5499 5532
5465 6 5396 5430 5431 5499 5500 5533
5466 6 5397 5431 5432 5500 5501 5534
5467 6 5398 5432 5433 5501 5502 5535
5468 6 5399 5433 5434 5502 5503 5536
5469 6 5400 5434 5435 5503 5504 5537
5470 6 5401 5435 5436 5504 5505 5538
5471 6 5402 5436 5437 5505 5506 5539
5472 6 5403 5437 5438 5506 5507 5540
5473 6 5404 5438 5439 5507 5508 5541
5474 6 5405 5439 5440 5508 5509 5542
5475 6 5406 5440 5441 5509 5510 5543
5476 6 5407 5441 5442 5510 5511 5544
5477 6 5408 5442 5443 5511 5512 5545
5478 6 5409 5443 5444 5512 5513 5546
5479 6 5410 5444 5445 5513 5514 5547
5480 6 5411 5445 5446 5514 5515 5548
5481 6 5412 5446 5447 5515 5516 5549
5482 6 5413 5447 5448 5516 5517 5550
5483 6 5414 5448 5449 5517 5518 5551
5484 6 5415 5449 5450 5518 5519 5552
5485 6 5416 5450 5451 5519 5520 5553
5486 5 5417 5451 5452 5520 5521
5487 2 5418 5453
5488 4 5419 5454 5522 5554
5489 6 5420 5454 5455 5522 5523 5555
5490 6 5421 5455 5456 5523 5524 5556
5491 6 5422 5456 5457 5524 5525 5557
5492 6 5423 5457 5458 5525 5526 5558
5493 6 5424 5458 5459 5526 5527 5559
5494 6 5425 5459 5460 5527 5528 5560
5495 6 5426 5460 5461 5528 5529 5561
5496 6 5427 5461 5462 5529 5530 5562
5497 6 5428 5462 5463 5530 5531 5563
5498 6 5429 5463 5464 5531 5532 5564
5499 6 5430 5464 5465 5532 5533 5565
5500 6 5431 5465 5466 5533 5534 5566
5501 6 5432 5466 5467 5534 5535 5567
5502 6 5433 5467 5468 5535 5536 5568
5503 6 5434 5468 5469 5536 5537 5569
5504 6 5435 5469 5470 5537 5538 5570
5505 6 5436 5470 5471 5538 5539 5571
5506 6 5437 5471 5472 5539 5540 5572
5507 6 5438 5472 5473 5540 5541 5573
5508 6 5439 5473 5474 5541 5542 5574
5509 6 5440 5474 5475 5542 5543 5575
5510 6 5441 5475 5476 5543 5544 5576
5511 6 5442 5476 5477 5544 5545 5577
5512 6 5443 5477 5478 5545 5546 5578
5513 6 5444 5478 5479 5546 5547 5579
5514 6 5445 5479 5480 5547 5548 5580
5515 6 5446 5480 5481 5548 5549 5581
5516 6 5447 5481 5482 5549 5550 5582
5517 6 5448 5482 5483 5550 5551 5583
5518 6 5449 5483 5484 5551 5552 5584
5519 6 5450 5484 5485 5552 5553 5585
5520 5 5451 5485 5486 5553 5586
5521 3 5452 5486 5587
5522 6 5454 5488 5489 5554 5555 5589
5523 6 5455 5489 5490 5555 5556 5590
5524 6 5456 5490 5491 5556 5557 5591
5525 6 5457 5491 5492 5557 5558 5592
5526 6 5458 5492 5493 5558 5559 5593
5527 6 5459 5493 5494 5559 5560 5594
5528 6 5460 5494 5495 5560 5561 5595
5529 6 5461 5495 5496 5561 5562 5596
5530 6 5462 5496 5497 5562 5563 5597
5531 6 5463 5497 5498 5563 5564 5598
5532 6 5464 5498 5499 5564 5565 5599
5533 6 5465 5499 5500 5565 5566 5600
5534 6 5466 5500 5501 5566 5567 5601
5535 6 5467 5501 5502 5567 5568 5602
5536 6 5468 5502 5503 5568 5569 5603
5537 6 5469 5503 5504 5569 5570 5604
5538 6 5470 5504 5505 5570 5571 5605
5539 6 5471 5505 5506 5571 5572 5606
5540 6 5472 5506 5507 5572 5573 5607
5541 6 5473 5507 5508 5573 5574 5608
5542 6 5474 5508 5509 5574 5575 5609
5543 6 5475 5509 5510 5575 5576 5610
5544 6 5476 5510 5511 5576 5577 5611
5545 6 5477 5511 5512 5577 5578 5612
5546 6 5478 5512 5513 5578 5579 5613
5547 6 5479 5513 5514 5579 5580 5614
5548 6 5480 5514 5515 5580 5581 5615
5549 6 5481 5515 5516 5581 5582 5616
5550 6 5482 5516 5517 5582 5583 5617
5551 6 5483 5517 5518 5583 5584 5618
5552 6 5484 5518 5519 5584 5585 5619
5553 6 5485 5519 5520 5585 5586 5620
5554 5 5488 5522 5588 5589 5621
5555 6 5489 5522 5523 5589 5590 5622
5556 6 5490 5523 5524 5590 5591 5623
5557 6 5491 5524 5525 5591 5592 5624
5558 6 5492 5525 5526 5592 5593 5625
5559 6 5493 5526 5527 5593 5594 5626
5560 6 5494 5527 5528 5594 5595 5627
5561 6 5495 5528 5529 5595 5596 5628
5562 6 5496 5529 5530 5596 5597 5629
5563 6 5497 5530 5531 5597 5598 5630
5564 6 5498 5531 5532 5598 5599 5631
5565 6 5499 5532 5533 5599 5600 5632
5566 6 5500 5533 5534 5600 5601 5633
5567 6 5501 5534 5535 5601 5602 5634
5568 6 5502 5535 5536 5602 5603 5635
5569 6 5503 5536 5537 5603 5604 5636
5570 6 5504 5537 5538 5604 5605 5637
5571 6 5505 5538 5539 5605 5606 5638
5572 6 5506 5539 5540 5606 5607 5639
5573 6 5507 5540 5541 5607 5608 5640
5574 6 5508 5541 5542 5608 5609 5641
5575 6 5509 5542 5543 5609 5610 5642
5576 6 5510 5543 5544 5610 5611 5643
5577 6 5511 5544 5545 5611 5612 5644
5578 6 5512 5545 5546 5612 5613 5645
5579 6 5513 5546 5547 5613 5614 5646
5580 6 5514 5547 5548 5614 5615 5647
5581 6 5515 5548 5549 5615 5616 5648
5582 6 5516 5549 5550 5616 5617 5649
5583 6 5517 5550 5551 5617 5618 5650
5584 6 5518 5551 5552 5618 5619 5651
5585 6 5519 5552 5553 5619 5620 5652
5586 3 5520 5553 5620
5587 1 5521
5588 2 5554 5621
5589 5 5522 5554 5555 5621 5622
5590 6 5523 5555 5556 5622 5623 5653
5591 6 5524 5556 5557 5623 5624 5654
5592 6 5525 5557 5558 5624 5625 5655
5593 6 5526 5558 5559 5625 5626 5656
5594 6 5527 5559 5560 5626 5627 5657
5595 6 5528 5560 5561 5627 5628 5658
5596 6 5529 5561 5562 5628 5629 5659
5597 6 5530 5562 5563 5629 5630 5660
5598 6 5531 5563 5564 5630 5631 5661
5599 6 5532 5564 5565 5631 5632 5662
5600 6 5533 5565 5566 5632 5633 5663
5601 6 5534 5566 5567 5633 5634 5664
5602 6 5535 5567 5568 5634 5635 5665
5603 6 5536 5568 5569 5635 5636 5666
5604 6 5537 5569 5570 5636 5637 5667
5605 6 5538 5570 5571 5637 5638 5668
5606 6 5539 5571 5572 5638 5639 5669
5607 6 5540 5572 5573 5639 5640 5670
5608 6 5541 5573 5574 5640 5641 5671
5609 6 5542 5574 5575 5641 5642 5672
5610 6 5543 5575 5576 5642 5643 5673
5611 6 5544 5576 5577 5643 5644 5674
5612 6 5545 5577 5578 5644 5645 5675
5613 5 5546 5578 5579 5645 5646
5614 5 5547 5579 5580 5646 5647
5615 5 5548 5580 5581 5647 5648
5616 6 5549 5581 5582 5648 5649 5676
5617 6 5550 5582 5583 5649 5650 5677
5618 6 5551 5583 5584 5650 5651 5678
5619 6 5552 5584 5585 5651 5652 5679
5620 5 5553 5585 5586 5652 5680
5621 3 5554 5588 5589
5622 4 5555 5589 5590 5653
5623 6 5556 5590 5591 5653 5654 5681
5624 6 5557 5591 5592 5654 5655 5682
5625 6 5558 5592 5593 5655 5656 5683
5626 6 5559 5593 5594 5656 5657 5684
5627 6 5560 5594 5595 5657 5658 5685
5628 6 5561 5595 5596 5658 5659 5686
5629 6 5562 5596 5597 5659 5660 5687
5630 6 5563 5597 5598 5660 5661 5688
5631 6 5564 5598 5599 5661 5662 5689
5632 6 5565 5599 5600 5662 5663 5690
5633 6 5566 5600 5601 5663 5664 5691
5634 6 5567 5601 5602 5664 5665 5692
5635 6 5568 5602 5603 5665 5666 5693
5636 6 5569 5603 5604 5666 5667 5694
5637 6 5570 5604 5605 5667 5668 5695
5638 6 5571 5605 5606 5668 5669 5696
5639 6 5572 5606 5607 5669 5670 5697
5640 6 5573 5607 5608 5670 5671 5698
5641 6 5574 5608 5609 5671 5672 5699
5642 6 5575 5609 5610 5672 5673 5700
5643 6 5576 5610 5611 5673 5674 5701
5644 6 5577 5611 5612 5674 5675 5702
5645 4 5578 5612 5613 5675
5646 3 5579 5613 5614
5647 3 5580 5614 5615
5648 4 5581 5615 5616 5676
5649 5 5582 5616 5617 5676 5677
5650 6 5583 5617 5618 5677 5678 5703
5651 6 5584 5618 5619 5678 5679 5704
5652 6 5585 5619 5620 5679 5680 5705
5653 4 5590 5622 5623 5681
5654 6 5591 5623 5624 5681 5682 5706
5655 6 5592 5624 5625 5682 5683 5707
5656 6 5593 5625 5626 5683 5684 5708
5657 6 5594 5626 5627 5684 5685 5709
5658 6 5595 5627 5628 5685 5686 5710
5659 6 5596 5628 5629 5686 5687 5711
5660 6 5597 5629 5630 5687 5688 5712
5661 6 5598 5630 5631 5688 5689 5713
5662 6 5599 5631 5632 5689 5690 5714
5663 6 5600 5632 5633 5690 5691 5715
5664 6 5601 5633 5634 5691 5692 5716
5665 6 5602 5634 5635 5692 5693 5717
5666 6 5603 5635 5636 5693 5694 5718
5667 6 5604 5636 5637 5694 5695 5719
5668 6 5605 5637 5638 5695 5696 5720
5669 6 5606 5638 5639 5696 5697 5721
5670 6 5607 5639 5640 5697 5698 5722
5671 6 5608 5640 5641 5698 5699 5723
5672 6 5609 5641 5642 5699 5700 5724
5673 6 5610 5642 5643 5700 5701 5725
5674 6 5611 5643 5644 5701 5702 5726
5675 4 5612 5644 5645 5702
5676 3 5616 5648 5649
5677 4 5617 5649 5650 5703
5678 6 5618 5650 5651 5703 5704 5727
5679 6 5619 5651 5652 5704 5705 5728
5680 4 5620 5652 5705 5729
5681 5 5623 5653 5654 5706 5730
5682 6 5624 5654 5655 5706 5707 5731
5683 6 5625 5655 5656 5707 5708 5732
5684 6 5626 5656 5657 5708 5709 5733
5685 6 5627 5657 5658 5709 5710 5734
5686 6 5628 5658 5659 5710 5711 5735
5687 6 5629 5659 5660 5711 5712 5736
5688 6 5630 5660 5661 5712 5713 5737
5689 6 5631 5661 5662 5713 5714 5738
5690 6 5632 5662 5663 5714 5715 5739
5691 6 5633 5663 5664 5715 5716 5740
5692 6 5634 5664 5665 5716 5717 5741
5693 6 5635 5665 5666 5717 5718 5742
5694 6 5636 5666 5667 5718 5719 5743
5695 6 5637 5667 5668 5719 5720 5744
5696 6 5638 5668 5669 5720 5721 5745
5697 6 5639 5669 5670 5721 5722 5746
5698 6 5640 5670 5671 5722 5723 5747
5699 6 5641 5671 5672 5723 5724 5748
5700 6 5642 5672 5673 5724 5725 5749
5701 6 5643 5673 5674 5725 5726 5750
5702 5 5644 5674 5675 5726 5751
5703 4 5650 5677 5678 5727
5704 6 5651 5678 5679 5727 5728 5753
5705 6 5652 5679 5680 5728 5729 5754
5706 6 5654 5681 5682 5730 5731 5756
5707 6 5655 5682 5683 5731 5732 5757
5708 6 5656 5683 5684 5732 5733 5758
5709 6 5657 5684 5685 5733 5734 5759
5710 6 5658 5685 5686 5734 5735 5760
5711 6 5659 5686 5687 5735 5736 5761
5712 6 5660 5687 5688 5736 5737 5762
5713 6 5661 5688 5689 5737 5738 5763
5714 6 5662 5689 5690 5738 5739 5764
5715 6 5663 5690 5691 5739 5740 5765
5716 6 5664 5691 5692 5740 5741 5766
5717 6 5665 5692 5693 5741 5742 5767
5718 6 5666 5693 5694 5742 5743 5768
5719 6 5667 5694 5695 5743 5744 5769
5720 6 5668 5695 5696 5744 5745 5770
5721 6 5669 5696 5697 5745 5746 5771
5722 6 5670 5697 5698 5746 5747 5772
5723 6 5671 5698 5699 5747 5748 5773
5724 6 5672 5699 5700 5748 5749 5774
5725 6 5673 5700 5701 5749 5750 5775
5726 6 5674 5701 5702 5750 5751 5776
5727 4 5678 5703 5704 5753
5728 6 5679 5704 5705 5753 5754 5781
5729 5 5680 5705 5754 5755 5782
5730 4 5681 5706 5756 5783
5731 6 5682 5706 5707 5756 5757 5784
5732 6 5683 5707 5708 5757 5758 5785
5733 6 5684 5708 5709 5758 5759 5786
5734 6 5685 5709 5710 5759 5760 5787
5735 6 5686 5710 5711 5760 5761 5788
5736 6 5687 5711 5712 5761 5762 5789
5737 6 5688 5712 5713 5762 5763 5790
5738 6 5689 5713 5714 5763 5764 5791
5739 6 5690 5714 5715 5764 5765 5792
5740 6 5691 5715 5716 5765 5766 5793
5741 6 5692 5716 5717 5766 5767 5794
5742 6 5693 5717 5718 5767 5768 5795
5743 6 5694 5718 5719 5768 5769 5796
5744 6 5695 5719 5720 5769 5770 5797
5745 6 5696 5720 5721 5770 5771 5798
5746 6 5697 5721 5722 5771 5772 5799
5747 6 5698 5722 5723 5772 5773 5800
5748 6 5699 5723 5724 5773 5774 5801
5749 6 5700 5724 5725 5774 5775 5802
5750 6 5701 5725 5726 5775 5776 5803
5751 5 5702 5726 5776 5777 5804
5752 3 5778 5779 5808
5753 5 5704 5727 5728 5781 5811
5754 6 5705 5728 5729 5781 5782 5812
5755 3 5729 5782 5813
5756 6 5706 5730 5731 5783 5784 5814
5757 6 5707 5731 5732 5784 5785 5815
5758 6 5708 5732 5733 5785 5786 5816
5759 6 5709 5733 5734 5786 5787 5817
5760 6 5710 5734 5735 5787 5788 5818
5761 6 5711 5735 5736 5788 5789 5819
5762 6 5712 5736 5737 5789 5790 5820
5763 6 5713 5737 5738 5790 5791 5821
5764 6 5714 5738 5739 5791 5792 5822
5765 6 5715 5739 5740 5792 5793 5823
5766 6 5716 5740 5741 5793 5794 5824
5767 6 5717 5741 5742 5794 5795 5825
5768 6 5718 5742 5743 5795 5796 5826
5769 6 5719 5743 5744 5796 5797 5827
5770 6 5720 5744 5745 5797 5798 5828
5771 6 5721 5745 5746 5798 5799 5829
5772 6 5722 5746 5747 5799 5800 5830
5773 6 5723 5747 5748 5800 5801 5831
5774 6 5724 5748 5749 5801 5802 5832
5775 6 5725 5749 5750 5802 5803 5833
5776 6 5726 5750 5751 5803 5804 5834
5777 4 5751 5804 5805 5835
5778 4 5752 5807 5808 5838
5779 4 5752 5808 5809 5839
5780 3 5809 5810 5840
5781 6 5728 5753 5754 5811 5812 5842
5782 6 5729 5754 5755 5812 5813 5843
5783 4 5730 5756 5814 5844
5784 6 5731 5756 5757 5814 5815 5845
5785 6 5732 5757 5758 5815 5816 5846
5786 6 5733 5758 5759 5816 5817 5847
5787 6 5734 5759 5760 5817 5818 5848
5788 6 5735 5760 5761 5818 5819 5849
5789 6 5736 5761 5762 5819 5820 5850
5790 6 5737 5762 5763 5820 5821 5851
5791 6 5738 5763 5764 5821 5822 5852
5792 6 5739 5764 5765 5822 5823 5853
5793 6 5740 5765 5766 5823 5824 5854
5794 6 5741 5766 5767 5824 5825 5855
5795 6 5742 5767 5768 5825 5826 5856
5796 6 5743 5768 5769 5826 5827 5857
5797 6 5744 5769 5770 5827 5828 5858
5798 6 5745 5770 5771 5828 5829 5859
5799 6 5746 5771 5772 5829 5830 5860
5800 6 5747 5772 5773 5830 5831 5861
5801 6 5748 5773 5774 5831 5832 5862
5802 6 5749 5774 5775 5832 5833 5863
5803 6 5750 5775 5776 5833 5834 5864
5804 6 5751 5776 5777 5834 5835 5865
5805 4 5777 5835 5836 5866
5806 3 5836 5837 5867
5807 4 5778 5837 5838 5868
5808 6 5752 5778 5779 5838 5839 5869
5809 5 5779 5780 5839 5840 5870
5810 4 5780 5840 5841 5871
5811 5 5753 5781 5841 5842 5872
5812 6 5754 5781 5782 5842 5843 5873
5813 4 5755 5782 5843 5874
5814 6 5756 5783 5784 5844 5845 5875
5815 6 5757 5784 5785 5845 5846 5876
5816 6 5758 5785 5786 5846 5847 5877
5817 6 5759 5786 5787 5847 5848 5878
5818 6 5760 5787 5788 5848 5849 5879
5819 6 5761 5788 5789 5849 5850 5880
5820 6 5762 5789 5790 5850 5851 5881
5821 6 5763 5790 5791 5851 5852 5882
5822 6 5764 5791 5792 5852 5853 5883
5823 6 5765 5792 5793 5853 5854 5884
5824 6 5766 5793 5794 5854 5855 5885
5825 6 5767 5794 5795 5855 5856 5886
5826 6 5768 5795 5796 5856 5857 5887
5827 6 5769 5796 5797 5857 5858 5888
5828 6 5770 5797 5798 5858 5859 5889
5829 6 5771 5798 5799 5859 5860 5890
5830 6 5772 5799 5800 5860 5861 5891
5831 6 5773 5800 5801 5861 5862 5892
5832 6 5774 5801 5802 5862 5863 5893
5833 6 5775 5802 5803 5863 5864 5894
5834 6 5776 5803 5804 5864 5865 5895
5835 6 5777 5804 5805 5865 5866 5896
5836 5 5805 5806 5866 5867 5897
5837 5 5806 5807 5867 5868 5898
5838 6 5778 5807 5808 5868 5869 5899
5839 6 5779 5808 5809 5869 5870 5900
5840 6 5780 5809 5810 5870 5871 5901
5841 5 5810 5811 5871 5872 5902
5842 6 5781 5811 5812 5872 5873 5903
5843 6 5782 5812 5813 5873 5874 5904
5844 3 5783 5814 5875
5845 6 5784 5814 5815 5875 5876 5906
5846 6 5785 5815 5816 5876 5877 5907
5847 6 5786 5816 5817 5877 5878 5908
5848 6 5787 5817 5818 5878 5879 5909
5849 6 5788 5818 5819 5879 5880 5910
5850 6 5789 5819 5820 5880 5881 5911
5851 6 5790 5820 5821 5881 5882 5912
5852 6 5791 5821 5822 5882 5883 5913
5853 6 5792 5822 5823 5883 5884 5914
5854 6 5793 5823 5824 5884 5885 5915
5855 6 5794 5824 5825 5885 5886 5916
5856 6 5795 5825 5826 5886 5887 5917
5857 6 5796 5826 5827 5887 5888 5918
5858 6 5797 5827 5828 5888 5889 5919
5859 6 5798 5828 5829 5889 5890 5920
5860 6 5799 5829 5830 5890 5891 5921
5861 6 5800 5830 5831 5891 5892 5922
5862 6 5801 5831 5832 5892 5893 5923
5863 6 5802 5832 5833 5893 5894 5924
5864 6 5803 5833 5834 5894 5895 5925
5865 6 5804 5834 5835 5895 5896 5926
5866 6 5805 5835 5836 5896 5897 5927
5867 6 5806 5836 5837 5897 5898 5928
5868 6 5807 5837 5838 5898 5899 5929
5869 6 5808 5838 5839 5899 5900 5930
5870 6 5809 5839 5840 5900 5901 5931
5871 6 5810 5840 5841 5901 5902 5932
5872 6 5811 5841 5842 5902 5903 5933
5873 6 5812 5842 5843 5903 5904 5934
5874 5 5813 5843 5904 5905 5935
5875 5 5814 5844 5845 5906 5936
5876 6 5815 5845 5846 5906 5907 5937
5877 6 5816 5846 5847 5907 5908 5938
5878 6 5817 5847 5848 5908 5909 5939
5879 6 5818 5848 5849 5909 5910 5940
5880 6 5819 5849 5850 5910 5911 5941
5881 6 5820 5850 5851 5911 5912 5942
5882 6 5821 5851 5852 5912 5913 5943
5883 6 5822 5852 5853 5913 5914 5944
5884 6 5823 5853 5854 5914 5915 5945
5885 6 5824 5854 5855 5915 5916 5946
5886 6 5825 5855 5856 5916 5917 5947
5887 6 5826 5856 5857 5917 5918 5948
5888 6 5827 5857 5858 5918 5919 5949
5889 6 5828 5858 5859 5919 5920 5950
5890 6 5829 5859 5860 5920 5921 5951
5891 6 5830 5860 5861 5921 5922 5952
5892 6 5831 5861 5862 5922 5923 5953
5893 6 5832 5862 5863 5923 5924 5954
5894 6 5833 5863 5864 5924 5925 5955
5895 6 5834 5864 5865 5925 5926 5956
5896 6 5835 5865 5866 5926 5927 5957
5897 6 5836 5866 5867 5927 5928 5958
5898 6 5837 5867 5868 5928 5929 5959
5899 6 5838 5868 5869 5929 5930 5960
5900 6 5839 5869 5870 5930 5931 5961
5901 6 5840 5870 5871 5931 5932 5962
5902 6 5841 5871 5872 5932 5933 5963
5903 6 5842 5872 5873 5933 5934 5964
5904 6 5843 5873 5874 5934 5935 5965
5905 2 5874 5935
5906 6 5845 5875 5876 5936 5937 5966
5907 6 5846 5876 5877 5937 5938 5967
5908 6 5847 5877 5878 5938 5939 5968
5909 6 5848 5878 5879 5939 5940 5969
5910 6 5849 5879 5880 5940 5941 5970
5911 6 5850 5880 5881 5941 5942 5971
5912 6 5851 5881 5882 5942 5943 5972
5913 6 5852 5882 5883 5943 5944 5973
5914 6 5853 5883 5884 5944 5945 5974
5915 6 5854 5884 5885 5945 5946 5975
5916 6 5855 5885 5886 5946 5947 5976
5917 6 5856 5886 5887 5947 5948 5977
5918 6 5857 5887 5888 5948 5949 5978
5919 6 5858 5888 5889 5949 5950 5979
5920 6 5859 5889 5890 5950 5951 5980
5921 6 5860 5890 5891 5951 5952 5981
5922 6 5861 5891 5892 5952 5953 5982
5923 6 5862 5892 5893 5953 5954 5983
5924 6 5863 5893 5894 5954 5955 5984
5925 6 5864 5894 5895 5955 5956 5985
5926 6 5865 5895 5896 5956 5957 5986
5927 6 5866 5896 5897 5957 5958 5987
5928 6 5867 5897 5898 5958 5959 5988
5929 6 5868 5898 5899 5959 5960 5989
5930 6 5869 5899 5900 5960 5961 5990
5931 6 5870 5900 5901 5961 5962 5991
5932 6 5871 5901 5902 5962 5963 5992
5933 6 5872 5902 5903 5963 5964 5993
5934 6 5873 5903 5904 5964 5965 5994
5935 5 5874 5904 5905 5965 5995
5936 4 5875 5906 5966 5996
5937 6 5876 5906 5907 5966 5967 5997
5938 6 5877 5907 5908 5967 5968 5998
5939 6 5878 5908 5909 5968 5969 5999
5940 6 5879 5909 5910 5969 5970 6000
5941 6 5880 5910 5911 5970 5971 6001
5942 6 5881 5911 5912 5971 5972 6002
5943 6 5882 5912 5913 5972 5973 6003
5944 6 5883 5913 5914 5973 5974 6004
5945 6 5884 5914 5915 5974 5975 6005
5946 6 5885 5915 5916 5975 5976 6006
5947 6 5886 5916 5917 5976 5977 6007
5948 6 5887 5917 5918 5977 5978 6008
5949 6 5888 5918 5919 5978 5979 6009
5950 6 5889 5919 5920 5979 5980 6010
5951 6 5890 5920 5921 5980 5981 6011
5952 6 5891 5921 5922 5981 5982 6012
5953 6 5892 5922 5923 5982 5983 6013
5954 6 5893 5923 5924 5983 5984 6014
5955 6 5894 5924 5925 5984 5985 6015
5956 6 5895 5925 5926 5985 5986 6016
5957 6 5896 5926 5927 5986 5987 6017
5958 6 5897 5927 5928 5987 5988 6018
5959 6 5898 5928 5929 5988 5989 6019
5960 6 5899 5929 5930 5989 5990 6020
5961 6 5900 5930 5931 5990 5991 6021
5962 6 5901 5931 5932 5991 5992 6022
5963 6 5902 5932 5933 5992 5993 6023
5964 6 5903 5933 5934 5993 5994 6024
5965 6 5904 5934 5935 5994 5995 6025
5966 6 5906 5936 5937 5996 5997 6026
5967 6 5907 5937 5938 5997 5998 6027
5968 6 5908 5938 5939 5998 5999 6028
5969 6 5909 5939 5940 5999 6000 6029
5970 6 5910 5940 5941 6000 6001 6030
5971 6 5911 5941 5942 6001 6002 6031
5972 6 5912 5942 5943 6002 6003 6032
5973 6 5913 5943 5944 6003 6004 6033
5974 6 5914 5944 5945 6004 6005 6034
5975 6 5915 5945 5946 6005 6006 6035
5976 6 5916 5946 5947 6006 6007 6036
5977 6 5917 5947 5948 6007 6008 6037
5978 6 5918 5948 5949 6008 6009 6038
5979 6 5919 5949 5950 6009 6010 6039
5980 6 5920 5950 5951 6010 6011 6040
5981 6 5921 5951 5952 6011 6012 6041
5982 6 5922 5952 5953 6012 6013 6042
5983 6 5923 5953 5954 6013 6014 6043
5984 6 5924 5954 5955 6014 6015 6044
5985 6 5925 5955 5956 6015 6016 6045
5986 6 5926 5956 5957 6016 6017 6046
5987 6 5927 5957 5958 6017 6018 6047
5988 6 5928 5958 5959 6018 6019 6048
5989 6 5929 5959 5960 6019 6020 6049
5990 6 5930 5960 5961 6020 6021 6050
5991 6 5931 5961 5962 6021 6022 6051
5992 6 5932 5962 5963 6022 6023 6052
5993 6 5933 5963 5964 6023 6024 6053
5994 6 5934 5964 5965 6024 6025 6054
5995 4 5935 5965 6025 6055
5996 4 5936 5966 6026 6056
5997 6 5937 5966 5967 6026 6027 6057
5998 6 5938 5967 5968 6027 6028 6058
5999 6 5939 5968 5969 6028 6029 6059
6000 6 5940 5969 5970 6029 6030 6060
6001 6 5941 5970 5971 6030 6031 6061
6002 6 5942 5971 5972 6031 6032 6062
6003 6 5943 5972 5973 6032 6033 6063
6004 6 5944 5973 5974 6033 6034 6064
6005 6 5945 5974 5975 6034 6035 6065
6006 6 5946 5975 5976 6035 6036 6066
6007 6 5947 5976 5977 6036 6037 6067
6008 6 5948 5977 5978 6037 6038 6068
6009 6 5949 5978 5979 6038 6039 6069
6010 6 5950 5979 5980 6039 6040 6070
6011 6 5951 5980 5981 6040 6041 6071
6012 6 5952 5981 5982 6041 6042 6072
6013 6 5953 5982 5983 6042 6043 6073
6014 6 5954 5983 5984 6043 6044 6074
6015 6 5955 5984 5985 6044 6045 6075
6016 6 5956 5985 5986 6045 6046 6076
6017 6 5957 5986 5987 6046 6047 6077
6018 6 5958 5987 5988 6047 6048 6078
6019 6 5959 5988 5989 6048 6049 6079
6020 6 5960 5989 5990 6049 6050 6080
6021 6 5961 5990 5991 6050 6051 6081
6022 6 5962 5991 5992 6051 6052 6082
6023 6 5963 5992 5993 6052 6053 6083
6024 5 5964 5993 5994 6053 6054
6025 6 5965 5994 5995 6054 6055 6084
6026 6 5966 5996 5997 6056 6057 6085
6027 6 5967 5997 5998 6057 6058 6086
6028 6 5968 5998 5999 6058 6059 6087
6029 6 5969 5999 6000 6059 6060 6088
6030 6 5970 6000 6001 6060 6061 6089
6031 6 5971 6001 6002 6061 6062 6090
6032 6 5972 6002 6003 6062 6063 6091
6033 6 5973 6003 6004 6063 6064 6092
6034 6 5974 6004 6005 6064 6065 6093
6035 6 5975 6005 6006 6065 6066 6094
6036 6 5976 6006 6007 6066 6067 6095
6037 6 5977 6007 6008 6067 6068 6096
6038 6 5978 6008 6009 6068 6069 6097
6039 6 5979 6009 6010 6069 6070 6098
6040 6 5980 6010 6011 6070 6071 6099
6041 6 5981 6011 6012 6071 6072 6100
6042 6 5982 6012 6013 6072 6073 6101
6043 6 5983 6013 6014 6073 6074 6102
6044 6 5984 6014 6015 6074 6075 6103
6045 6 5985 6015 6016 6075 6076 6104
6046 6 5986 6016 6017 6076 6077 6105
6047 6 5987 6017 6018 6077 6078 6106
6048 6 5988 6018 6019 6078 6079 6107
6049 6 5989 6019 6020 6079 6080 6108
6050 6 5990 6020 6021 6080 6081 6109
6051 6 5991 6021 6022 6081 6082 6110
6052 6 5992 6022 6023 6082 6083 6111
6053 5 5993 6023 6024 6083 6112
6054 5 5994 6024 6025 6084 6113
6055 3 5995 6025 6084
6056 4 5996 6026 6085 6114
6057 6 5997 6026 6027 6085 6086 6115
6058 6 5998 6027 6028 6086 6087 6116
6059 6 5999 6028 6029 6087 6088 6117
6060 6 6000 6029 6030 6088 6089 6118
6061 6 6001 6030 6031 6089 6090 6119
6062 6 6002 6031 6032 6090 6091 6120
6063 6 6003 6032 6033 6091 6092 6121
6064 6 6004 6033 6034 6092 6093 6122
6065 6 6005 6034 6035 6093 6094 6123
6066 6 6006 6035 6036 6094 6095 6124
6067 6 6007 6036 6037 6095 6096 6125
6068 6 6008 6037 6038 6096 6097 6126
6069 6 6009 6038 6039 6097 6098 6127
6070 6 6010 6039 6040 6098 6099 6128
6071 6 6011 6040 6041 6099 6100 6129
6072 6 6012 6041 6042 6100 6101 6130
6073 6 6013 6042 6043 6101 6102 6131
6074 6 6014 6043 6044 6102 6103 6132
6075 6 6015 6044 6045 6103 6104 6133
6076 6 6016 6045 6046 6104 6105 6134
6077 6 6017 6046 6047 6105 6106 6135
6078 6 6018 6047 6048 6106 6107 6136
6079 6 6019 6048 6049 6107 6108 6137
6080 6 6020 6049 6050 6108 6109 6138
6081 6 6021 6050 6051 6109 6110 6139
6082 6 6022 6051 6052 6110 6111 6140
6083 6 6023 6052 6053 6111 6112 6141
6084 4 6025 6054 6055 6113
6085 6 6026 6056 6057 6114 6115 6143
6086 6 6027 6057 6058 6115 6116 6144
6087 6 6028 6058 6059 6116 6117 6145
6088 6 6029 6059 6060 6117 6118 6146
6089 6 6030 6060 6061 6118 6119 6147
6090 6 6031 6061 6062 6119 6120 6148
6091 6 6032 6062 6063 6120 6121 6149
6092 6 6033 6063 6064 6121 6122 6150
6093 6 6034 6064 6065 6122 6123 6151
6094 6 6035 6065 6066 6123 6124 6152
6095 6 6036 6066 6067 6124 6125 6153
6096 6 6037 6067 6068 6125 6126 6154
6097 6 6038 6068 6069 6126 6127 6155
6098 6 6039 6069 6070 6127 6128 6156
6099 6 6040 6070 6071 6128 6129 6157
6100 6 6041 6071 6072 6129 6130 6158
6101 6 6042 6072 6073 6130 6131 6159
6102 6 6043 6073 6074 6131 6132 6160
6103 6 6044 6074 6075 6132 6133 6161
6104 6 6045 6075 6076 6133 6134 6162
6105 6 6046 6076 6077 6134 6135 6163
6106 6 6047 6077 6078 6135 6136 6164
6107 6 6048 6078 6079 6136 6137 6165
6108 6 6049 6079 6080 6137 6138 6166
6109 6 6050 6080 6081 6138 6139 6167
6110 6 6051 6081 6082 6139 6140 6168
6111 6 6052 6082 6083 6140 6141 6169
6112 4 6053 6083 6141 6170
6113 2 6054 6084
6114 5 6056 6085 6142 6143 6172
6115 6 6057 6085 6086 6143 6144 6173
6116 6 6058 6086 6087 6144 6145 6174
6117 6 6059 6087 6088 6145 6146 6175
6118 6 6060 6088 6089 6146 6147 6176
6119 6 6061 6089 6090 6147 6148 6177
6120 6 6062 6090 6091 6148 6149 6178
6121 6 6063 6091 6092 6149 6150 6179
6122 6 6064 6092 6093 6150 6151 6180
6123 6 6065 6093 6094 6151 6152 6181
6124 6 6066 6094 6095 6152 6153 6182
6125 6 6067 6095 6096 6153 6154 6183
6126 6 6068 6096 6097 6154 6155 6184
6127 6 6069 6097 6098 6155 6156 6185
6128 6 6070 6098 6099 6156 6157 6186
6129 6 6071 6099 6100 6157 6158 6187
6130 6 6072 6100 6101 6158 6159 6188
6131 6 6073 6101 6102 6159 6160 6189
6132 6 6074 6102 6103 6160 6161 6190
6133 6 6075 6103 6104 6161 6162 6191
6134 6 6076 6104 6105 6162 6163 6192
6135 6 6077 6105 6106 6163 6164 6193
6136 6 6078 6106 6107 6164 6165 6194
6137 6 6079 6107 6108 6165 6166 6195
6138 6 6080 6108 6109 6166 6167 6196
6139 6 6081 6109 6110 6167 6168 6197
6140 6 6082 6110 6111 6168 6169 6198
6141 6 6083 6111 6112 6169 6170 6199
6142 4 6114 6171 6172 6200
6143 6 6085 6114 6115 6172 6173 6201
6144 6 6086 6115 6116 6173 6174 6202
6145 6 6087 6116 6117 6174 6175 6203
6146 6 6088 6117 6118 6175 6176 6204
6147 6 6089 6118 6119 6176 6177 6205
6148 6 6090 6119 6120 6177 6178 6206
6149 6 6091 6120 6121 6178 6179 6207
6150 6 6092 6121 6122 6179 6180 6208
6151 6 6093 6122 6123 6180 6181 6209
6152 6 6094 6123 6124 6181 6182 6210
6153 6 6095 6124 6125 6182 6183 6211
6154 6 6096 6125 6126 6183 6184 6212
6155 6 6097 6126 6127 6184 6185 6213
6156 6 6098 6127 6128 6185 6186 6214
6157 6 6099 6128 6129 6186 6187 6215
6158 6 6100 6129 6130 6187 6188 6216
6159 6 6101 6130 6131 6188 6189 6217
6160 6 6102 6131 6132 6189 6190 6218
6161 6 6103 6132 6133 6190 6191 6219
6162 6 6104 6133 6134 6191 6192 6220
6163 6 6105 6134 6135 6192 6193 6221
6164 6 6106 6135 6136 6193 6194 6222
6165 6 6107 6136 6137 6194 6195 6223
6166 6 6108 6137 6138 6195 6196 6224
6167 6 6109 6138 6139 6196 6197 6225
6168 5 6110 6139 6140 6197 6198
6169 5 6111 6140 6141 6198 6199
6170 3 6112 6141 6199
6171 3 6142 6200 6226
6172 6 6114 6142 6143 6200 6201 6227
6173 6 6115 6143 6144 6201 6202 6228
6174 6 6116 6144 6145 6202 6203 6229
6175 6 6117 6145 6146 6203 6204 6230
6176 6 6118 6146 6147 6204 6205 6231
6177 6 6119 6147 6148 6205 6206 6232
6178 6 6120 6148 6149 6206 6207 6233
6179 6 6121 6149 6150 6207 6208 6234
6180 6 6122 6150 6151 6208 6209 6235
6181 6 6123 6151 6152 6209 6210 6236
6182 6 6124 6152 6153 6210 6211 6237
6183 6 6125 6153 6154 6211 6212 6238
6184 6 6126 6154 6155 6212 6213 6239
6185 6 6127 6155 6156 6213 6214 6240
6186 6 6128 6156 6157 6214 6215 6241
6187 6 6129 6157 6158 6215 6216 6242
6188 6 6130 6158 6159 6216 6217 6243
6189 6 6131 6159 6160 6217 6218 6244
6190 6 6132 6160 6161 6218 6219 6245
6191 6 6133 6161 6162 6219 6220 6246
6192 6 6134 6162 6163 6220 6221 6247
6193 6 6135 6163 6164 6221 6222 6248
6194 6 6136 6164 6165 6222 6223 6249
6195 6 6137 6165 6166 6223 6224 6250
6196 6 6138 6166 6167 6224 6225 6251
6197 5 6139 6167 6168 6225 6252
6198 3 6140 6168 6169
6199 3 6141 6169 6170
6200 6 6142 6171 6172 6226 6227 6253
6201 6 6143 6172 6173 6227 6228 6254
6202 6 6144 6173 6174 6228 6229 6255
6203 6 6145 6174 6175 6229 6230 6256
6204 6 6146 6175 6176 6230 6231 6257
6205 6 6147 6176 6177 6231 6232 6258
6206 6 6148 6177 6178 6232 6233 6259
6207 6 6149 6178 6179 6233 6234 6260
6208 6 6150 6179 6180 6234 6235 6261
6209 6 6151 6180 6181 6235 6236 6262
6210 6 6152 6181 6182 6236 6237 6263
6211 6 6153 6182 6183 6237 6238 6264
6212 6 6154 6183 6184 6238 6239 6265
6213 6 6155 6184 6185 6239 6240 6266
6214 6 6156 6185 6186 6240 6241 6267
6215 6 6157 6186 6187 6241 6242 6268
6216 6 6158 6187 6188 6242 6243 6269
6217 6 6159 6188 6189 6243 6244 6270
6218 6 6160 6189 6190 6244 6245 6271
6219 6 6161 6190 6191 6245 6246 6272
6220 6 6162 6191 6192 6246 6247 6273
6221 6 6163 6192 6193 6247 6248 6274
6222 6 6164 6193 6194 6248 6249 6275
6223 6 6165 6194 6195 6249 6250 6276
6224 6 6166 6195 6196 6250 6251 6277
6225 6 6167 6196 6197 6251 6252 6278
6226 4 6171 6200 6253 6279
6227 6 6172 6200 6201 6253 6254 6280
6228 6 6173 6201 6202 6254 6255 6281
6229 6 6174 6202 6203 6255 6256 6282
6230 6 6175 6203 6204 6256 6257 6283
6231 6 6176 6204 6205 6257 6258 6284
6232 6 6177 6205 6206 6258 6259 6285
6233 6 6178 6206 6207 6259 6260 6286
6234 6 6179 6207 6208 6260 6261 6287
6235 6 6180 6208 6209 6261 6262 6288
6236 6 6181 6209 6210 6262 6263 6289
6237 6 6182 6210 6211 6263 6264 6290
6238 6 6183 6211 6212 6264 6265 6291
6239 6 6184 6212 6213 6265 6266 6292
6240 6 6185 6213 6214 6266 6267 6293
6241 6 6186 6214 6215 6267 6268 6294
6242 6 6187 6215 6216 6268 6269 6295
6243 6 6188 6216 6217 6269 6270 6296
6244 6 6189 6217 6218 6270 6271 6297
6245 6 6190 6218 6219 6271 6272 6298
6246 6 6191 6219 6220 6272 6273 6299
6247 6 6192 6220 6221 6273 6274 6300
6248 6 6193 6221 6222 6274 6275 6301
6249 6 6194 6222 6223 6275 6276 6302
6250 6 6195 6223 6224 6276 6277 6303
6251 6 6196 6224 6225 6277 6278 6304
6252 4 6197 6225 6278 6305
6253 6 6200 6226 6227 6279 6280 6306
6254 6 6201 6227 6228 6280 6281 6307
6255 6 6202 6228 6229 6281 6282 6308
6256 6 6203 6229 6230 6282 6283 6309
6257 6 6204 6230 6231 6283 6284 6310
6258 6 6205 6231 6232 6284 6285 6311
6259 6 6206 6232 6233 6285 6286 6312
6260 6 6207 6233 6234 6286 6287 6313
6261 6 6208 6234 6235 6287 6288 6314
6262 6 6209 6235 6236 6288 6289 6315
6263 6 6210 6236 6237 6289 6290 6316
6264 6 6211 6237 6238 6290 6291 6317
6265 6 6212 6238 6239 6291 6292 6318
6266 6 6213 6239 6240 6292 6293 6319
6267 6 6214 6240 6241 6293 6294 6320
6268 6 6215 6241 6242 6294 6295 6321
6269 6 6216 6242 6243 6295 6296 6322
6270 6 6217 6243 6244 6296 6297 6323
6271 6 6218 6244 6245 6297 6298 6324
6272 6 6219 6245 6246 6298 6299 6325
6273 6 6220 6246 6247 6299 6300 6326
6274 6 6221 6247 6248 6300 6301 6327
6275 5 6222 6248 6249 6301 6302
6276 6 6223 6249 6250 6302 6303 6328
6277 6 6224 6250 6251 6303 6304 6329
6278 5 6225 6251 6252 6304 6305
6279 3 6226 6253 6306
6280 6 6227 6253 6254 6306 6307 6330
6281 6 6228 6254 6255 6307 6308 6331
6282 6 6229 6255 6256 6308 6309 6332
6283 6 6230 6256 6257 6309 6310 6333
6284 6 6231 6257 6258 6310 6311 6334
6285 6 6232 6258 6259 6311 6312 6335
6286 6 6233 6259 6260 6312 6313 6336
6287 6 6234 6260 6261 6313 6314 6337
6288 6 6235 6261 6262 6314 6315 6338
6289 6 6236 6262 6263 6315 6316 6339
6290 6 6237 6263 6264 6316 6317 6340
6291 6 6238 6264 6265 6317 6318 6341
6292 6 6239 6265 6266 6318 6319 6342
6293 6 6240 6266 6267 6319 6320 6343
6294 6 6241 6267 6268 6320 6321 6344
6295 6 6242 6268 6269 6321 6322 6345
6296 6 6243 6269 6270 6322 6323 6346
6297 6 6244 6270 6271 6323 6324 6347
6298 6 6245 6271 6272 6324 6325 6348
6299 6 6246 6272 6273 6325 6326 6349
6300 6 6247 6273 6274 6326 6327 6350
6301 4 6248 6274 6275 6327
6302 4 6249 6275 6276 6328
6303 5 6250 6276 6277 6328 6329
6304 4 6251 6277 6278 6329
6305 2 6252 6278
6306 5 6253 6279 6280 6330 6351
6307 6 6254 6280 6281 6330 6331 6352
6308 6 6255 6281 6282 6331 6332 6353
6309 6 6256 6282 6283 6332 6333 6354
6310 6 6257 6283 6284 6333 6334 6355
6311 6 6258 6284 6285 6334 6335 6356
6312 6 6259 6285 6286 6335 6336 6357
6313 6 6260 6286 6287 6336 6337 6358
6314 6 6261 6287 6288 6337 6338 6359
6315 6 6262 6288 6289 6338 6339 6360
6316 6 6263 6289 6290 6339 6340 6361
6317 6 6264 6290 6291 6340 6341 6362
6318 6 6265 6291 6292 6341 6342 6363
6319 6 6266 6292 6293 6342 6343 6364
6320 6 6267 6293 6294 6343 6344 6365
6321 6 6268 6294 6295 6344 6345 6366
6322 6 6269 6295 6296 6345 6346 6367
6323 6 6270 6296 6297 6346 6347 6368
6324 6 6271 6297 6298 6347 6348 6369
6325 6 6272 6298 6299 6348 6349 6370
6326 6 6273 6299 6300 6349 6350 6371
6327 5 6274 6300 6301 6350 6372
6328 3 6276 6302 6303
6329 3 6277 6303 6304
6330 6 6280 6306 6307 6351 6352 6373
6331 6 6281 6307 6308 6352 6353 6374
6332 6 6282 6308 6309 6353 6354 6375
6333 6 6283 6309 6310 6354 6355 6376
6334 6 6284 6310 6311 6355 6356 6377
6335 6 6285 6311 6312 6356 6357 6378
6336 6 6286 6312 6313 6357 6358 6379
6337 6 6287 6313 6314 6358 6359 6380
6338 6 6288 6314 6315 6359 6360 6381
6339 6 6289 6315 6316 6360 6361 6382
6340 6 6290 6316 6317 6361 6362 6383
6341 6 6291 6317 6318 6362 6363 6384
6342 6 6292 6318 6319 6363 6364 6385
6343 6 6293 6319 6320 6364 6365 6386
6344 6 6294 6320 6321 6365 6366 6387
6345 6 6295 6321 6322 6366 6367 6388
6346 6 6296 6322 6323 6367 6368 6389
6347 6 6297 6323 6324 6368 6369 6390
6348 6 6298 6324 6325 6369 6370 6391
6349 6 6299 6325 6326 6370 6371 6392
6350 6 6300 6326 6327 6371 6372 6393
6351 4 6306 6330 6373 6395
6352 6 6307 6330 6331 6373 6374 6396
6353 6 6308 6331 6332 6374 6375 6397
6354 6 6309 6332 6333 6375 6376 6398
6355 6 6310 6333 6334 6376 6377 6399
6356 6 6311 6334 6335 6377 6378 6400
6357 6 6312 6335 6336 6378 6379 6401
6358 6 6313 6336 6337 6379 6380 6402
6359 6 6314 6337 6338 6380 6381 6403
6360 6 6315 6338 6339 6381 6382 6404
6361 6 6316 6339 6340 6382 6383 6405
6362 6 6317 6340 6341 6383 6384 6406
6363 6 6318 6341 6342 6384 6385 6407
6364 6 6319 6342 6343 6385 6386 6408
6365 6 6320 6343 6344 6386 6387 6409
6366 6 6321 6344 6345 6387 6388 6410
6367 6 6322 6345 6346 6388 6389 6411
6368 6 6323 6346 6347 6389 6390 6412
6369 6 6324 6347 6348 6390 6391 6413
6370 6 6325 6348 6349 6391 6392 6414
6371 6 6326 6349 6350 6392 6393 6415
6372 5 6327 6350 6393 6394 6416
6373 6 6330 6351 6352 6395 6396 6417
6374 6 6331 6352 6353 6396 6397 6418
6375 6 6332 6353 6354 6397 6398 6419
6376 6 6333 6354 6355 6398 6399 6420
6377 6 6334 6355 6356 6399 6400 6421
6378 6 6335 6356 6357 6400 6401 6422
6379 6 6336 6357 6358 6401 6402 6423
6380 6 6337 6358 6359 6402 6403 6424
6381 6 6338 6359 6360 6403 6404 6425
6382 6 6339 6360 6361 6404 6405 6426
6383 6 6340 6361 6362 6405 6406 6427
6384 6 6341 6362 6363 6406 6407 6428
6385 6 6342 6363 6364 6407 6408 6429
6386 6 6343 6364 6365 6408 6409 6430
6387 6 6344 6365 6366 6409 6410 6431
6388 6 6345 6366 6367 6410 6411 6432
6389 6 6346 6367 6368 6411 6412 6433
6390 6 6347 6368 6369 6412 6413 6434
6391 6 6348 6369 6370 6413 6414 6435
6392 6 6349 6370 6371 6414 6415 6436
6393 6 6350 6371 6372 6415 6416 6437
6394 3 6372 6416 6438
6395 4 6351 6373 6417 6439
6396 6 6352 6373 6374 6417 6418 6440
6397 6 6353 6374 6375 6418 6419 6441
6398 6 6354 6375 6376 6419 6420 6442
6399 6 6355 6376 6377 6420 6421 6443
6400 6 6356 6377 6378 6421 6422 6444
6401 6 6357 6378 6379 6422 6423 6445
6402 6 6358 6379 6380 6423 6424 6446
6403 6 6359 6380 6381 6424 6425 6447
6404 6 6360 6381 6382 6425 6426 6448
6405 6 6361 6382 6383 6426 6427 6449
6406 6 6362 6383 6384 6427 6428 6450
6407 6 6363 6384 6385 6428 6429 6451
6408 6 6364 6385 6386 6429 6430 6452
6409 6 6365 6386 6387 6430 6431 6453
6410 6 6366 6387 6388 6431 6432 6454
6411 6 6367 6388 6389 6432 6433 6455
6412 6 6368 6389 6390 6433 6434 6456
6413 6 6369 6390 6391 6434 6435 6457
6414 6 6370 6391 6392 6435 6436 6458
6415 6 6371 6392 6393 6436 6437 6459
6416 6 6372 6393 6394 6437 6438 6460
6417 6 6373 6395 6396 6439 6440 6463
6418 6 6374 6396 6397 6440 6441 6464
6419 6 6375 6397 6398 6441 6442 6465
6420 6 6376 6398 6399 6442 6443 6466
6421 6 6377 6399 6400 6443 6444 6467
6422 6 6378 6400 6401 6444 6445 6468
6423 6 6379 6401 6402 6445 6446 6469
6424 6 6380 6402 6403 6446 6447 6470
6425 6 6381 6403 6404 6447 6448 6471
6426 6 6382 6404 6405 6448 6449 6472
6427 6 6383 6405 6406 6449 6450 6473
6428 6 6384 6406 6407 6450 6451 6474
6429 6 6385 6407 6408 6451 6452 6475
6430 6 6386 6408 6409 6452 6453 6476
6431 6 6387 6409 6410 6453 6454 6477
6432 6 6388 6410 6411 6454 6455 6478
6433 6 6389 6411 6412 6455 6456 6479
6434 6 6390 6412 6413 6456 6457 6480
6435 6 6391 6413 6414 6457 6458 6481
6436 6 6392 6414 6415 6458 6459 6482
6437 6 6393 6415 6416 6459 6460 6483
6438 5 6394 6416 6460 6461 6484
6439 5 6395 6417 6462 6463 6486
6440 6 6396 6417 6418 6463 6464 6487
6441 6 6397 6418 6419 6464 6465 6488
6442 6 6398 6419 6420 6465 6466 6489
6443 6 6399 6420 6421 6466 6467 6490
6444 6 6400 6421 6422 6467 6468 6491
6445 6 6401 6422 6423 6468 6469 6492
6446 6 6402 6423 6424 6469 6470 6493
6447 6 6403 6424 6425 6470 6471 6494
6448 6 6404 6425 6426 6471 6472 6495
6449 6 6405 6426 6427 6472 6473 6496
6450 6 6406 6427 6428 6473 6474 6497
6451 6 6407 6428 6429 6474 6475 6498
6452 6 6408 6429 6430 6475 6476 6499
6453 6 6409 6430 6431 6476 6477 6500
6454 6 6410 6431 6432 6477 6478 6501
6455 6 6411 6432 6433 6478 6479 6502
6456 6 6412 6433 6434 6479 6480 6503
6457 6 6413 6434 6435 6480 6481 6504
6458 6 6414 6435 6436 6481 6482 6505
6459 6 6415 6436 6437 6482 6483 6506
6460 6 6416 6437 6438 6483 6484 6507
6461 3 6438 6484 6508
6462 4 6439 6485 6486 6509
6463 6 6417 6439 6440 6486 6487 6510
6464 6 6418 6440 6441 6487 6488 6511
6465 6 6419 6441 6442 6488 6489 6512
6466 6 6420 6442 6443 6489 6490 6513
6467 6 6421 6443 6444 6490 6491 6514
6468 6 6422 6444 6445 6491 6492 6515
6469 6 6423 6445 6446 6492 6493 6516
6470 6 6424 6446 6447 6493 6494 6517
6471 6 6425 6447 6448 6494 6495 6518
6472 6 6426 6448 6449 6495 6496 6519
6473 6 6427 6449 6450 6496 6497 6520
6474 6 6428 6450 6451 6497 6498 6521
6475 6 6429 6451 6452 6498 6499 6522
6476 6 6430 6452 6453 6499 6500 6523
6477 6 6431 6453 6454 6500 6501 6524
6478 6 6432 6454 6455 6501 6502 6525
6479 6 6433 6455 6456 6502 6503 6526
6480 6 6434 6456 6457 6503 6504 6527
6481 6 6435 6457 6458 6504 6505 6528
6482 6 6436 6458 6459 6505 6506 6529
6483 6 6437 6459 6460 6506 6507 6530
6484 6 6438 6460 6461 6507 6508 6531
6485 3 6462 6509 6534
6486 6 6439 6462 6463 6509 6510 6535
6487 6 6440 6463 6464 6510 6511 6536
6488 6 6441 6464 6465 6511 6512 6537
6489 6 6442 6465 6466 6512 6513 6538
6490 6 6443 6466 6467 6513 6514 6539
6491 6 6444 6467 6468 6514 6515 6540
6492 6 6445 6468 6469 6515 6516 6541
6493 6 6446 6469 6470 6516 6517 6542
6494 6 6447 6470 6471 6517 6518 6543
6495 6 6448 6471 6472 6518 6519 6544
6496 6 6449 6472 6473 6519 6520 6545
6497 6 6450 6473 6474 6520 6521 6546
6498 6 6451 6474 6475 6521 6522 6547
6499 6 6452 6475 6476 6522 6523 6548
6500 6 6453 6476 6477 6523 6524 6549
6501 6 6454 6477 6478 6524 6525 6550
6502 6 6455 6478 6479 6525 6526 6551
6503 6 6456 6479 6480 6526 6527 6552
6504 6 6457 6480 6481 6527 6528 6553
6505 6 6458 6481 6482 6528 6529 6554
6506 6 6459 6482 6483 6529 6530 6555
6507 6 6460 6483 6484 6530 6531 6556
6508 5 6461 6484 6531 6532 6557
6509 6 6462 6485 6486 6534 6535 6562
6510 6 6463 6486 6487 6535 6536 6563
6511 6 6464 6487 6488 6536 6537 6564
6512 6 6465 6488 6489 6537 6538 6565
6513 6 6466 6489 6490 6538 6539 6566
6514 6 6467 6490 6491 6539 6540 6567
6515 6 6468 6491 6492 6540 6541 6568
6516 6 6469 6492 6493 6541 6542 6569
6517 6 6470 6493 6494 6542 6543 6570
6518 6 6471 6494 6495 6543 6544 6571
6519 6 6472 6495 6496 6544 6545 6572
6520 6 6473 6496 6497 6545 6546 6573
6521 6 6474 6497 6498 6546 6547 6574
6522 6 6475 6498 6499 6547 6548 6575
6523 6 6476 6499 6500 6548 6549 6576
6524 6 6477 6500 6501 6549 6550 6577
6525 6 6478 6501 6502 6550 6551 6578
6526 6 6479 6502 6503 6551 6552 6579
6527 6 6480 6503 6504 6552 6553 6580
6528 6 6481 6504 6505 6553 6554 6581
6529 6 6482 6505 6506 6554 6555 6582
6530 6 6483 6506 6507 6555 6556 6583
6531 6 6484 6507 6508 6556 6557 6584
6532 4 6508 6557 6558 6585
6533 3 6559 6560 6587
6534 5 6485 6509 6561 6562 6589
6535 6 6486 6509 6510 6562 6563 6590
6536 6 6487 6510 6511 6563 6564 6591
6537 6 6488 6511 6512 6564 6565 6592
6538 6 6489 6512 6513 6565 6566 6593
6539 6 6490 6513 6514 6566 6567 6594
6540 6 6491 6514 6515 6567 6568 6595
6541 6 6492 6515 6516 6568 6569 6596
6542 6 6493 6516 6517 6569 6570 6597
6543 6 6494 6517 6518 6570 6571 6598
6544 6 6495 6518 6519 6571 6572 6599
6545 6 6496 6519 6520 6572 6573 6600
6546 6 6497 6520 6521 6573 6574 6601
6547 6 6498 6521 6522 6574 6575 6602
6548 6 6499 6522 6523 6575 6576 6603
6549 6 6500 6523 6524 6576 6577 6604
6550 6 6501 6524 6525 6577 6578 6605
6551 6 6502 6525 6526 6578 6579 6606
6552 6 6503 6526 6527 6579 6580 6607
6553 6 6504 6527 6528 6580 6581 6608
6554 6 6505 6528 6529 6581 6582 6609
6555 6 6506 6529 6530 6582 6583 6610
6556 6 6507 6530 6531 6583 6584 6611
6557 6 6508 6531 6532 6584 6585 6612
6558 3 6532 6585 6613
6559 4 6533 6586 6587 6615
6560 4 6533 6587 6588 6616
6561 4 6534 6588 6589 6617
6562 6 6509 6534 6535 6589 6590 6618
6563 6 6510 6535 6536 6590 6591 6619
6564 6 6511 6536 6537 6591 6592 6620
6565 6 6512 6537 6538 6592 6593 6621
6566 6 6513 6538 6539 6593 6594 6622
6567 6 6514 6539 6540 6594 6595 6623
6568 6 6515 6540 6541 6595 6596 6624
6569 6 6516 6541 6542 6596 6597 6625
6570 6 6517 6542 6543 6597 6598 6626
6571 6 6518 6543 6544 6598 6599 6627
6572 6 6519 6544 6545 6599 6600 6628
6573 6 6520 6545 6546 6600 6601 6629
6574 6 6521 6546 6547 6601 6602 6630
6575 6 6522 6547 6548 6602 6603 6631
6576 6 6523 6548 6549 6603 6604 6632
6577 6 6524 6549 6550 6604 6605 6633
6578 6 6525 6550 6551 6605 6606 6634
6579 6 6526 6551 6552 6606 6607 6635
6580 6 6527 6552 6553 6607 6608 6636
6581 6 6528 6553 6554 6608 6609 6637
6582 6 6529 6554 6555 6609 6610 6638
6583 6 6530 6555 6556 6610 6611 6639
6584 6 6531 6556 6557 6611 6612 6640
6585 6 6532 6557 6558 6612 6613 6641
6586 4 6559 6614 6615 6644
6587 6 6533 6559 6560 6615 6616 6645
6588 5 6560 6561 6616 6617 6646
6589 6 6534 6561 6562 6617 6618 6647
6590 6 6535 6562 6563 6618 6619 6648
6591 6 6536 6563 6564 6619 6620 6649
6592 6 6537 6564 6565 6620 6621 6650
6593 6 6538 6565 6566 6621 6622 6651
6594 6 6539 6566 6567 6622 6623 6652
6595 6 6540 6567 6568 6623 6624 6653
6596 6 6541 6568 6569 6624 6625 6654
6597 6 6542 6569 6570 6625 6626 6655
6598 6 6543 6570 6571 6626 6627 6656
6599 6 6544 6571 6572 6627 6628 6657
6600 6 6545 6572 6573 6628 6629 6658
6601 6 6546 6573 6574 6629 6630 6659
6602 6 6547 6574 6575 6630 6631 6660
6603 6 6548 6575 6576 6631 6632 6661
6604 6 6549 6576 6577 6632 6633 6662
6605 6 6550 6577 6578 6633 6634 6663
6606 6 6551 6578 6579 6634 6635 6664
6607 6 6552 6579 6580 6635 6636 6665
6608 6 6553 6580 6581 6636 6637 6666
6609 6 6554 6581 6582 6637 6638 6667
6610 6 6555 6582 6583 6638 6639 6668
6611 6 6556 6583 6584 6639 6640 6669
6612 6 6557 6584 6585 6640 6641 6670
6613 5 6558 6585 6641 6642 6671
6614 4 6586 6643 6644 6674
6615 6 6559 6586 6587 6644 6645 6675
6616 6 6560 6587 6588 6645 6646 6676
6617 6 6561 6588 6589 6646 6647 6677
6618 6 6562 6589 6590 6647 6648 6678
6619 6 6563 6590 6591 6648 6649 6679
6620 6 6564 6591 6592 6649 6650 6680
6621 6 6565 6592 6593 6650 6651 6681
6622 6 6566 6593 6594 6651 6652 6682
6623 6 6567 6594 6595 6652 6653 6683
6624 6 6568 6595 6596 6653 6654 6684
6625 6 6569 6596 6597 6654 6655 6685
6626 6 6570 6597 6598 6655 6656 6686
6627 6 6571 6598 6599 6656 6657 6687
6628 6 6572 6599 6600 6657 6658 6688
6629 6 6573 6600 6601 6658 6659 6689
6630 6 6574 6601 6602 6659 6660 6690
6631 6 6575 6602 6603 6660 6661 6691
6632 6 6576 6603 6604 6661 6662 6692
6633 6 6577 6604 6605 6662 6663 6693
6634 6 6578 6605 6606 6663 6664 6694
6635 6 6579 6606 6607 6664 6665 6695
6636 6 6580 6607 6608 6665 6666 6696
6637 6 6581 6608 6609 6666 6667 6697
6638 6 6582 6609 6610 6667 6668 6698
6639 6 6583 6610 6611 6668 6669 6699
6640 6 6584 6611 6612 6669 6670 6700
6641 6 6585 6612 6613 6670 6671 6701
6642 3 6613 6671 6702
6643 4 6614 6673 6674 6704
6644 6 6586 6614 6615 6674 6675 6705
6645 6 6587 6615 6616 6675 6676 6706
6646 6 6588 6616 6617 6676 6677 6707
6647 6 6589 6617 6618 6677 6678 6708
6648 6 6590 6618 6619 6678 6679 6709
6649 6 6591 6619 6620 6679 6680 6710
6650 6 6592 6620 6621 6680 6681 6711
6651 6 6593 6621 6622 6681 6682 6712
6652 6 6594 6622 6623 6682 6683 6713
6653 6 6595 6623 6624 6683 6684 6714
6654 6 6596 6624 6625 6684 6685 6715
6655 6 6597 6625 6626 6685 6686 6716
6656 6 6598 6626 6627 6686 6687 6717
6657 6 6599 6627 6628 6687 6688 6718
6658 6 6600 6628 6629 6688 6689 6719
6659 6 6601 6629 6630 6689 6690 6720
6660 6 6602 6630 6631 6690 6691 6721
6661 6 6603 6631 6632 6691 6692 6722
6662 6 6604 6632 6633 6692 6693 6723
6663 6 6605 6633 6634 6693 6694 6724
6664 6 6606 6634 6635 6694 6695 6725
6665 6 6607 6635 6636 6695 6696 6726
6666 6 6608 6636 6637 6696 6697 6727
6667 6 6609 6637 6638 6697 6698 6728
6668 6 6610 6638 6639 6698 6699 6729
6669 6 6611 6639 6640 6699 6700 6730
6670 6 6612 6640 6641 6700 6701 6731
6671 6 6613 6641 6642 6701 6702 6732
6672 2 6703 6734
6673 3 6643 6704 6735
6674 6 6614 6643 6644 6704 6705 6736
6675 6 6615 6644 6645 6705 6706 6737
6676 6 6616 6645 6646 6706 6707 6738
6677 6 6617 6646 6647 6707 6708 6739
6678 6 6618 6647 6648 6708 6709 6740
6679 6 6619 6648 6649 6709 6710 6741
6680 6 6620 6649 6650 6710 6711 6742
6681 5 6621 6650 6651 6711 6712
6682 6 6622 6651 6652 6712 6713 6743
6683 6 6623 6652 6653 6713 6714 6744
6684 6 6624 6653 6654 6714 6715 6745
6685 6 6625 6654 6655 6715 6716 6746
6686 6 6626 6655 6656 6716 6717 6747
6687 6 6627 6656 6657 6717 6718 6748
6688 6 6628 6657 6658 6718 6719 6749
6689 6 6629 6658 6659 6719 6720 6750
6690 6 6630 6659 6660 6720 6721 6751
6691 6 6631 6660 6661 6721 6722 6752
6692 6 6632 6661 6662 6722 6723 6753
6693 6 6633 6662 6663 6723 6724 6754
6694 6 6634 6663 6664 6724 6725 6755
6695 6 6635 6664 6665 6725 6726 6756
6696 6 6636 6665 6666 6726 6727 6757
6697 6 6637 6666 6667 6727 6728 6758
6698 6 6638 6667 6668 6728 6729 6759
6699 6 6639 6668 6669 6729 6730 6760
6700 6 6640 6669 6670 6730 6731 6761
6701 6 6641 6670 6671 6731 6732 6762
6702 5 6642 6671 6732 6733 6763
6703 4 6672 6733 6734 6764
6704 6 6643 6673 6674 6735 6736 6768
6705 6 6644 6674 6675 6736 6737 6769
6706 6 6645 6675 6676 6737 6738 6770
6707 6 6646 6676 6677 6738 6739 6771
6708 6 6647 6677 6678 6739 6740 6772
6709 6 6648 6678 6679 6740 6741 6773
6710 6 6649 6679 6680 6741 6742 6774
6711 4 6650 6680 6681 6742
6712 4 6651 6681 6682 6743
6713 6 6652 6682 6683 6743 6744 6775
6714 6 6653 6683 6684 6744 6745 6776
6715 6 6654 6684 6685 6745 6746 6777
6716 6 6655 6685 6686 6746 6747 6778
6717 6 6656 6686 6687 6747 6748 6779
6718 6 6657 6687 6688 6748 6749 6780
6719 6 6658 6688 6689 6749 6750 6781
6720 6 6659 6689 6690 6750 6751 6782
6721 6 6660 6690 6691 6751 6752 6783
6722 6 6661 6691 6692 6752 6753 6784
6723 6 6662 6692 6693 6753 6754 6785
6724 6 6663 6693 6694 6754 6755 6786
6725 6 6664 6694 6695 6755 6756 6787
6726 6 6665 6695 6696 6756 6757 6788
6727 6 6666 6696 6697 6757 6758 6789
6728 6 6667 6697 6698 6758 6759 6790
6729 6 6668 6698 6699 6759 6760 6791
6730 6 6669 6699 6700 6760 6761 6792
6731 6 6670 6700 6701 6761 6762 6793
6732 6 6671 6701 6702 6762 6763 6794
6733 5 6702 6703 6763 6764 6795
6734 5 6672 6703 6764 6765 6796
6735 5 6673 6704 6767 6768 6799
6736 6 6674 6704 6705 6768 6769 6800
6737 6 6675 6705 6706 6769 6770 6801
6738 6 6676 6706 6707 6770 6771 6802
6739 6 6677 6707 6708 6771 6772 6803
6740 6 6678 6708 6709 6772 6773 6804
6741 6 6679 6709 6710 6773 6774 6805
6742 4 6680 6710 6711 6774
6743 4 6682 6712 6713 6775
6744 5 6683 6713 6714 6775 6776
6745 6 6684 6714 6715 6776 6777 6806
6746 6 6685 6715 6716 6777 6778 6807
6747 6 6686 6716 6717 6778 6779 6808
6748 6 6687 6717 6718 6779 6780 6809
6749 6 6688 6718 6719 6780 6781 6810
6750 6 6689 6719 6720 6781 6782 6811
6751 6 6690 6720 6721 6782 6783 6812
6752 6 6691 6721 6722 6783 6784 6813
6753 6 6692 6722 6723 6784 6785 6814
6754 6 6693 6723 6724 6785 6786 6815
6755 6 6694 6724 6725 6786 6787 6816
6756 6 6695 6725 6726 6787 6788 6817
6757 6 6696 6726 6727 6788 6789 6818
6758 6 6697 6727 6728 6789 6790 6819
6759 6 6698 6728 6729 6790 6791 6820
6760 6 6699 6729 6730 6791 6792 6821
6761 6 6700 6730 6731 6792 6793 6822
6762 6 6701 6731 6732 6793 6794 6823
6763 6 6702 6732 6733 6794 6795 6824
6764 6 6703 6733 6734 6795 6796 6825
6765 3 6734 6796 6826
6766 2 6797 6827
6767 4 6735 6798 6799 6828
6768 6 6704 6735 6736 6799 6800 6829
6769 6 6705 6736 6737 6800 6801 6830
6770 6 6706 6737 6738 6801 6802 6831
6771 6 6707 6738 6739 6802 6803 6832
6772 6 6708 6739 6740 6803 6804 6833
6773 6 6709 6740 6741 6804 6805 6834
6774 4 6710 6741 6742 6805
6775 3 6713 6743 6744
6776 5 6714 6744 6745 6806 6835
6777 6 6715 6745 6746 6806 6807 6836
6778 6 6716 6746 6747 6807 6808 6837
6779 6 6717 6747 6748 6808 6809 6838
6780 6 6718 6748 6749 6809 6810 6839
6781 6 6719 6749 6750 6810 6811 6840
6782 6 6720 6750 6751 6811 6812 6841
6783 6 6721 6751 6752 6812 6813 6842
6784 6 6722 6752 6753 6813 6814 6843
6785 6 6723 6753 6754 6814 6815 6844
6786 6 6724 6754 6755 6815 6816 6845
6787 6 6725 6755 6756 6816 6817 6846
6788 6 6726 6756 6757 6817 6818 6847
6789 6 6727 6757 6758 6818 6819 6848
6790 6 6728 6758 6759 6819 6820 6849
6791 6 6729 6759 6760 6820 6821 6850
6792 6 6730 6760 6761 6821 6822 6851
6793 6 6731 6761 6762 6822 6823 6852
6794 6 6732 6762 6763 6823 6824 6853
6795 6 6733 6763 6764 6824 6825 6854
6796 6 6734 6764 6765 6825 6826 6855
6797 3 6766 6827 6856
6798 3 6767 6828 6857
6799 6 6735 6767 6768 6828 6829 6858
6800 6 6736 6768 6769 6829 6830 6859
6801 6 6737 6769 6770 6830 6831 6860
6802 6 6738 6770 6771 6831 6832 6861
6803 6 6739 6771 6772 6832 6833 6862
6804 6 6740 6772 6773 6833 6834 6863
6805 4 6741 6773 6774 6834
6806 6 6745 6776 6777 6835 6836 6864
6807 6 6746 6777 6778 6836 6837 6865
6808 6 6747 6778 6779 6837 6838 6866
6809 6 6748 6779 6780 6838 6839 6867
6810 6 6749 6780 6781 6839 6840 6868
6811 6 6750 6781 6782 6840 6841 6869
6812 6 6751 6782 6783 6841 6842 6870
6813 6 6752 6783 6784 6842 6843 6871
6814 6 6753 6784 6785 6843 6844 6872
6815 6 6754 6785 6786 6844 6845 6873
6816 6 6755 6786 6787 6845 6846 6874
6817 6 6756 6787 6788 6846 6847 6875
6818 6 6757 6788 6789 6847 6848 6876
6819 6 6758 6789 6790 6848 6849 6877
6820 6 6759 6790 6791 6849 6850 6878
6821 6 6760 6791 6792 6850 6851 6879
6822 6 6761 6792 6793 6851 6852 6880
6823 6 6762 6793 6794 6852 6853 6881
6824 6 6763 6794 6795 6853 6854 6882
6825 6 6764 6795 6796 6854 6855 6883
6826 4 6765 6796 6855 6884
6827 3 6766 6797 6856
6828 6 6767 6798 6799 6857 6858 6886
6829 6 6768 6799 6800 6858 6859 6887
6830 6 6769 6800 6801 6859 6860 6888
6831 6 6770 6801 6802 6860 6861 6889
6832 6 6771 6802 6803 6861 6862 6890
6833 6 6772 6803 6804 6862 6863 6891
6834 4 6773 6804 6805 6863
6835 3 6776 6806 6864
6836 6 6777 6806 6807 6864 6865 6892
6837 6 6778 6807 6808 6865 6866 6893
6838 6 6779 6808 6809 6866 6867 6894
6839 6 6780 6809 6810 6867 6868 6895
6840 6 6781 6810 6811 6868 6869 6896
6841 6 6782 6811 6812 6869 6870 6897
6842 6 6783 6812 6813 6870 6871 6898
6843 6 6784 6813 6814 6871 6872 6899
6844 6 6785 6814 6815 6872 6873 6900
6845 6 6786 6815 6816 6873 6874 6901
6846 6 6787 6816 6817 6874 6875 6902
6847 6 6788 6817 6818 6875 6876 6903
6848 6 6789 6818 6819 6876 6877 6904
6849 6 6790 6819 6820 6877 6878 6905
6850 6 6791 6820 6821 6878 6879 6906
6851 6 6792 6821 6822 6879 6880 6907
6852 6 6793 6822 6823 6880 6881 6908
6853 6 6794 6823 6824 6881 6882 6909
6854 6 6795 6824 6825 6882 6883 6910
6855 6 6796 6825 6826 6883 6884 6911
6856 3 6797 6827 6912
6857 5 6798 6828 6885 6886 6914
6858 6 6799 6828 6829 6886 6887 6915
6859 6 6800 6829 6830 6887 6888 6916
6860 6 6801 6830 6831 6888 6889 6917
6861 6 6802 6831 6832 6889 6890 6918
6862 6 6803 6832 6833 6890 6891 6919
6863 4 6804 6833 6834 6891
6864 4 6806 6835 6836 6892
6865 6 6807 6836 6837 6892 6893 6920
6866 6 6808 6837 6838 6893 6894 6921
6867 6 6809 6838 6839 6894 6895 6922
6868 6 6810 6839 6840 6895 6896 6923
6869 6 6811 6840 6841 6896 6897 6924
6870 6 6812 6841 6842 6897 6898 6925
6871 6 6813 6842 6843 6898 6899 6926
6872 6 6814 6843 6844 6899 6900 6927
6873 6 6815 6844 6845 6900 6901 6928
6874 6 6816 6845 6846 6901 6902 6929
6875 6 6817 6846 6847 6902 6903 6930
6876 6 6818 6847 6848 6903 6904 6931
6877 6 6819 6848 6849 6904 6905 6932
6878 6 6820 6849 6850 6905 6906 6933
6879 6 6821 6850 6851 6906 6907 6934
6880 6 6822 6851 6852 6907 6908 6935
6881 6 6823 6852 6853 6908 6909 6936
6882 6 6824 6853 6854 6909 6910 6937
6883 6 6825 6854 6855 6910 6911 6938
6884 4 6826 6855 6911 6939
6885 4 6857 6913 6914 6941
6886 6 6828 6857 6858 6914 6915 6942
6887 6 6829 6858 6859 6915 6916 6943
6888 6 6830 6859 6860 6916 6917 6944
6889 6 6831 6860 6861 6917 6918 6945
6890 6 6832 6861 6862 6918 6919 6946
6891 4 6833 6862 6863 6919
6892 4 6836 6864 6865 6920
6893 6 6837 6865 6866 6920 6921 6947
6894 6 6838 6866 6867 6921 6922 6948
6895 6 6839 6867 6868 6922 6923 6949
6896 6 6840 6868 6869 6923 6924 6950
6897 6 6841 6869 6870 6924 6925 6951
6898 6 6842 6870 6871 6925 6926 6952
6899 6 6843 6871 6872 6926 6927 6953
6900 6 6844 6872 6873 6927 6928 6954
6901 6 6845 6873 6874 6928 6929 6955
6902 6 6846 6874 6875 6929 6930 6956
6903 6 6847 6875 6876 6930 6931 6957
6904 6 6848 6876 6877 6931 6932 6958
6905 6 6849 6877 6878 6932 6933 6959
6906 6 6850 6878 6879 6933 6934 6960
6907 6 6851 6879 6880 6934 6935 6961
6908 6 6852 6880 6881 6935 6936 6962
6909 6 6853 6881 6882 6936 6937 6963
6910 6 6854 6882 6883 6937 6938 6964
6911 6 6855 6883 6884 6938 6939 6965
6912 3 6856 6940 6966
6913 4 6885 6940 6941 6967
6914 6 6857 6885 6886 6941 6942 6968
6915 6 6858 6886 6887 6942 6943 6969
6916 6 6859 6887 6888 6943 6944 6970
6917 6 6860 6888 6889 6944 6945 6971
6918 6 6861 6889 6890 6945 6946 6972
6919 4 6862 6890 6891 6946
6920 5 6865 6892 6893 6947 6973
6921 6 6866 6893 6894 6947 6948 6974
6922 6 6867 6894 6895 6948 6949 6975
6923 6 6868 6895 6896 6949 6950 6976
6924 6 6869 6896 6897 6950 6951 6977
6925 6 6870 6897 6898 6951 6952 6978
6926 6 6871 6898 6899 6952 6953 6979
6927 6 6872 6899 6900 6953 6954 6980
6928 6 6873 6900 6901 6954 6955 6981
6929 6 6874 6901 6902 6955 6956 6982
6930 6 6875 6902 6903 6956 6957 6983
6931 6 6876 6903 6904 6957 6958 6984
6932 6 6877 6904 6905 6958 6959 6985
6933 6 6878 6905 6906 6959 6960 6986
6934 6 6879 6906 6907 6960 6961 6987
6935 6 6880 6907 6908 6961 6962 6988
6936 6 6881 6908 6909 6962 6963 6989
6937 6 6882 6909 6910 6963 6964 6990
6938 6 6883 6910 6911 6964 6965 6991
6939 4 6884 6911 6965 6992
6940 5 6912 6913 6966 6967 6994
6941 6 6885 6913 6914 6967 6968 6995
6942 6 6886 6914 6915 6968 6969 6996
6943 6 6887 6915 6916 6969 6970 6997
6944 6 6888 6916 6917 6970 6971 6998
6945 6 6889 6917 6918 6971 6972 6999
6946 4 6890 6918 6919 6972
6947 6 6893 6920 6921 6973 6974 7000
6948 6 6894 6921 6922 6974 6975 7001
6949 6 6895 6922 6923 6975 6976 7002
6950 6 6896 6923 6924 6976 6977 7003
6951 6 6897 6924 6925 6977 6978 7004
6952 6 6898 6925 6926 6978 6979 7005
6953 6 6899 6926 6927 6979 6980 7006
6954 6 6900 6927 6928 6980 6981 7007
6955 6 6901 6928 6929 6981 6982 7008
6956 6 6902 6929 6930 6982 6983 7009
6957 6 6903 6930 6931 6983 6984 7010
6958 6 6904 6931 6932 6984 6985 7011
6959 6 6905 6932 6933 6985 6986 7012
6960 6 6906 6933 6934 6986 6987 7013
6961 6 6907 6934 6935 6987 6988 7014
6962 6 6908 6935 6936 6988 6989 7015
6963 6 6909 6936 6937 6989 6990 7016
6964 6 6910 6937 6938 6990 6991 7017
6965 6 6911 6938 6939 6991 6992 7018
6966 3 6912 6940 6994
6967 6 6913 6940 6941 6994 6995 7021
6968 6 6914 6941 6942 6995 6996 7022
6969 6 6915 6942 6943 6996 6997 7023
6970 6 6916 6943 6944 6997 6998 7024
6971 6 6917 6944 6945 6998 6999 7025
6972 4 6918 6945 6946 6999
6973 3 6920 6947 7000
6974 5 6921 6947 6948 7000 7001
6975 6 6922 6948 6949 7001 7002 7026
6976 6 6923 6949 6950 7002 7003 7027
6977 6 6924 6950 6951 7003 7004 7028
6978 6 6925 6951 6952 7004 7005 7029
6979 6 6926 6952 6953 7005 7006 7030
6980 6 6927 6953 6954 7006 7007 7031
6981 6 6928 6954 6955 7007 7008 7032
6982 6 6929 6955 6956 7008 7009 7033
6983 6 6930 6956 6957 7009 7010 7034
6984 6 6931 6957 6958 7010 7011 7035
6985 6 6932 6958 6959 7011 7012 7036
6986 6 6933 6959 6960 7012 7013 7037
6987 6 6934 6960 6961 7013 7014 7038
6988 6 6935 6961 6962 7014 7015 7039
6989 6 6936 6962 6963 7015 7016 7040
6990 6 6937 6963 6964 7016 7017 7041
6991 6 6938 6964 6965 7017 7018 7042
6992 5 6939 6965 7018 7019 7043
6993 2 7020 7045
6994 4 6940 6966 6967 7021
6995 6 6941 6967 6968 7021 7022 7046
6996 6 6942 6968 6969 7022 7023 7047
6997 6 6943 6969 6970 7023 7024 7048
6998 6 6944 6970 6971 7024 7025 7049
6999 4 6945 6971 6972 7025
7000 3 6947 6973 6974
7001 4 6948 6974 6975 7026
7002 6 6949 6975 6976 7026 7027 7050
7003 6 6950 6976 6977 7027 7028 7051
7004 6 6951 6977 6978 7028 7029 7052
7005 6 6952 6978 6979 7029 7030 7053
7006 6 6953 6979 6980 7030 7031 7054
7007 6 6954 6980 6981 7031 7032 7055
7008 6 6955 6981 6982 7032 7033 7056
7009 6 6956 6982 6983 7033 7034 7057
7010 6 6957 6983 6984 7034 7035 7058
7011 6 6958 6984 6985 7035 7036 7059
7012 6 6959 6985 6986 7036 7037 7060
7013 6 6960 6986 6987 7037 7038 7061
7014 6 6961 6987 6988 7038 7039 7062
7015 6 6962 6988 6989 7039 7040 7063
7016 6 6963 6989 6990 7040 7041 7064
7017 6 6964 6990 6991 7041 7042 7065
7018 6 6965 6991 6992 7042 7043 7066
7019 4 6992 7043 7044 7067
7020 4 6993 7044 7045 7068
7021 4 6967 6994 6995 7046
7022 5 6968 6995 6996 7046 7047
7023 5 6969 6996 6997 7047 7048
7024 5 6970 6997 6998 7048 7049
7025 4 6971 6998 6999 7049
7026 5 6975 7001 7002 7050 7070
7027 6 6976 7002 7003 7050 7051 7071
7028 6 6977 7003 7004 7051 7052 7072
7029 6 6978 7004 7005 7052 7053 7073
7030 6 6979 7005 7006 7053 7054 7074
7031 6 6980 7006 7007 7054 7055 7075
7032 6 6981 7007 7008 7055 7056 7076
7033 6 6982 7008 7009 7056 7057 7077
7034 6 6983 7009 7010 7057 7058 7078
7035 6 6984 7010 7011 7058 7059 7079
7036 6 6985 7011 7012 7059 7060 7080
7037 6 6986 7012 7013 7060 7061 7081
7038 6 6987 7013 7014 7061 7062 7082
7039 6 6988 7014 7015 7062 7063 7083
7040 6 6989 7015 7016 7063 7064 7084
7041 6 6990 7016 7017 7064 7065 7085
7042 6 6991 7017 7018 7065 7066 7086
7043 6 6992 7018 7019 7066 7067 7087
7044 5 7019 7020 7067 7068 7088
7045 5 6993 7020 7068 7069 7089
7046 3 6995 7021 7022
7047 3 6996 7022 7023
7048 3 6997 7023 7024
7049 3 6998 7024 7025
7050 6 7002 7026 7027 7070 7071 7091
7051 6 7003 7027 7028 7071 7072 7092
7052 6 7004 7028 7029 7072 7073 7093
7053 6 7005 7029 7030 7073 7074 7094
7054 6 7006 7030 7031 7074 7075 7095
7055 6 7007 7031 7032 7075 7076 7096
7056 6 7008 7032 7033 7076 7077 7097
7057 6 7009 7033 7034 7077 7078 7098
7058 6 7010 7034 7035 7078 7079 7099
7059 6 7011 7035 7036 7079 7080 7100
7060 6 7012 7036 7037 7080 7081 7101
7061 6 7013 7037 7038 7081 7082 7102
7062 6 7014 7038 7039 7082 7083 7103
7063 6 7015 7039 7040 7083 7084 7104
7064 6 7016 7040 7041 7084 7085 7105
7065 6 7017 7041 7042 7085 7086 7106
7066 6 7018 7042 7043 7086 7087 7107
7067 6 7019 7043 7044 7087 7088 7108
7068 6 7020 7044 7045 7088 7089 7109
7069 4 7045 7089 7090 7110
7070 4 7026 7050 7091 7112
7071 6 7027 7050 7051 7091 7092 7113
7072 6 7028 7051 7052 7092 7093 7114
7073 6 7029 7052 7053 7093 7094 7115
7074 6 7030 7053 7054 7094 7095 7116
7075 6 7031 7054 7055 7095 7096 7117
7076 6 7032 7055 7056 7096 7097 7118
7077 6 7033 7056 7057 7097 7098 7119
7078 6 7034 7057 7058 7098 7099 7120
7079 6 7035 7058 7059 7099 7100 7121
7080 6 7036 7059 7060 7100 7101 7122
7081 6 7037 7060 7061 7101 7102 7123
7082 6 7038 7061 7062 7102 7103 7124
7083 6 7039 7062 7063 7103 7104 7125
7084 6 7040 7063 7064 7104 7105 7126
7085 6 7041 7064 7065 7105 7106 7127
7086 6 7042 7065 7066 7106 7107 7128
7087 6 7043 7066 7067 7107 7108 7129
7088 6 7044 7067 7068 7108 7109 7130
7089 6 7045 7068 7069 7109 7110 7131
7090 4 7069 7110 7111 7132
7091 5 7050 7070 7071 7112 7113
7092 6 7051 7071 7072 7113 7114 7134
7093 6 7052 7072 7073 7114 7115 7135
7094 6 7053 7073 7074 7115 7116 7136
7095 6 7054 7074 7075 7116 7117 7137
7096 6 7055 7075 7076 7117 7118 7138
7097 6 7056 7076 7077 7118 7119 7139
7098 6 7057 7077 7078 7119 7120 7140
7099 6 7058 7078 7079 7120 7121 7141
7100 6 7059 7079 7080 7121 7122 7142
7101 6 7060 7080 7081 7122 7123 7143
7102 6 7061 7081 7082 7123 7124 7144
7103 6 7062 7082 7083 7124 7125 7145
7104 6 7063 7083 7084 7125 7126 7146
7105 6 7064 7084 7085 7126 7127 7147
7106 6 7065 7085 7086 7127 7128 7148
7107 6 7066 7086 7087 7128 7129 7149
7108 6 7067 7087 7088 7129 7130 7150
7109 6 7068 7088 7089 7130 7131 7151
7110 6 7069 7089 7090 7131 7132 7152
7111 4 7090 7132 7133 7153
7112 2 7070 7091
7113 4 7071 7091 7092 7134
7114 6 7072 7092 7093 7134 7135 7154
7115 6 7073 7093 7094 7135 7136 7155
7116 6 7074 7094 7095 7136 7137 7156
7117 6 7075 7095 7096 7137 7138 7157
7118 6 7076 7096 7097 7138 7139 7158
7119 6 7077 7097 7098 7139 7140 7159
7120 6 7078 7098 7099 7140 7141 7160
7121 6 7079 7099 7100 7141 7142 7161
7122 6 7080 7100 7101 7142 7143 7162
7123 6 7081 7101 7102 7143 7144 7163
7124 6 7082 7102 7103 7144 7145 7164
7125 6 7083 7103 7104 7145 7146 7165
7126 6 7084 7104 7105 7146 7147 7166
7127 6 7085 7105 7106 7147 7148 7167
7128 6 7086 7106 7107 7148 7149 7168
7129 6 7087 7107 7108 7149 7150 7169
7130 6 7088 7108 7109 7150 7151 7170
7131 6 7089 7109 7110 7151 7152 7171
7132 6 7090 7110 7111 7152 7153 7172
7133 3 7111 7153 7173
7134 5 7092 7113 7114 7154 7174
7135 6 7093 7114 7115 7154 7155 7175
7136 6 7094 7115 7116 7155 7156 7176
7137 6 7095 7116 7117 7156 7157 7177
7138 6 7096 7117 7118 7157 7158 7178
7139 6 7097 7118 7119 7158 7159 7179
7140 6 7098 7119 7120 7159 7160 7180
7141 6 7099 7120 7121 7160 7161 7181
7142 6 7100 7121 7122 7161 7162 7182
7143 6 7101 7122 7123 7162 7163 7183
7144 6 7102 7123 7124 7163 7164 7184
7145 6 7103 7124 7125 7164 7165 7185
7146 6 7104 7125 7126 7165 7166 7186
7147 6 7105 7126 7127 7166 7167 7187
7148 6 7106 7127 7128 7167 7168 7188
7149 6 7107 7128 7129 7168 7169 7189
7150 6 7108 7129 7130 7169 7170 7190
7151 6 7109 7130 7131 7170 7171 7191
7152 6 7110 7131 7132 7171 7172 7192
7153 6 7111 7132 7133 7172 7173 7193
7154 6 7114 7134 7135 7174 7175 7194
7155 6 7115 7135 7136 7175 7176 7195
7156 6 7116 7136 7137 7176 7177 7196
7157 6 7117 7137 7138 7177 7178 7197
7158 6 7118 7138 7139 7178 7179 7198
7159 6 7119 7139 7140 7179 7180 7199
7160 6 7120 7140 7141 7180 7181 7200
7161 6 7121 7141 7142 7181 7182 7201
7162 6 7122 7142 7143 7182 7183 7202
7163 6 7123 7143 7144 7183 7184 7203
7164 6 7124 7144 7145 7184 7185 7204
7165 6 7125 7145 7146 7185 7186 7205
7166 6 7126 7146 7147 7186 7187 7206
7167 6 7127 7147 7148 7187 7188 7207
7168 6 7128 7148 7149 7188 7189 7208
7169 6 7129 7149 7150 7189 7190 7209
7170 6 7130 7150 7151 7190 7191 7210
7171 6 7131 7151 7152 7191 7192 7211
7172 6 7132 7152 7153 7192 7193 7212
7173 4 7133 7153 7193 7213
7174 3 7134 7154 7194
7175 6 7135 7154 7155 7194 7195 7214
7176 6 7136 7155 7156 7195 7196 7215
7177 6 7137 7156 7157 7196 7197 7216
7178 6 7138 7157 7158 7197 7198 7217
7179 6 7139 7158 7159 7198 7199 7218
7180 6 7140 7159 7160 7199 7200 7219
7181 6 7141 7160 7161 7200 7201 7220
7182 6 7142 7161 7162 7201 7202 7221
7183 6 7143 7162 7163 7202 7203 7222
7184 6 7144 7163 7164 7203 7204 7223
7185 6 7145 7164 7165 7204 7205 7224
7186 6 7146 7165 7166 7205 7206 7225
7187 6 7147 7166 7167 7206 7207 7226
7188 6 7148 7167 7168 7207 7208 7227
7189 6 7149 7168 7169 7208 7209 7228
7190 6 7150 7169 7170 7209 7210 7229
7191 6 7151 7170 7171 7210 7211 7230
7192 6 7152 7171 7172 7211 7212 7231
7193 6 7153 7172 7173 7212 7213 7232
7194 5 7154 7174 7175 7214 7233
7195 6 7155 7175 7176 7214 7215 7234
7196 6 7156 7176 7177 7215 7216 7235
7197 6 7157 7177 7178 7216 7217 7236
7198 6 7158 7178 7179 7217 7218 7237
7199 6 7159 7179 7180 7218 7219 7238
7200 6 7160 7180 7181 7219 7220 7239
7201 6 7161 7181 7182 7220 7221 7240
7202 6 7162 7182 7183 7221 7222 7241
7203 6 7163 7183 7184 7222 7223 7242
7204 6 7164 7184 7185 7223 7224 7243
7205 6 7165 7185 7186 7224 7225 7244
7206 6 7166 7186 7187 7225 7226 7245
7207 6 7167 7187 7188 7226 7227 7246
7208 6 7168 7188 7189 7227 7228 7247
7209 6 7169 7189 7190 7228 7229 7248
7210 6 7170 7190 7191 7229 7230 7249
7211 6 7171 7191 7192 7230 7231 7250
7212 6 7172 7192 7193 7231 7232 7251
7213 4 7173 7193 7232 7252
7214 6 7175 7194 7195 7233 7234 7253
7215 6 7176 7195 7196 7234 7235 7254
7216 6 7177 7196 7197 7235 7236 7255
7217 6 7178 7197 7198 7236 7237 7256
7218 6 7179 7198 7199 7237 7238 7257
7219 6 7180 7199 7200 7238 7239 7258
7220 6 7181 7200 7201 7239 7240 7259
7221 6 7182 7201 7202 7240 7241 7260
7222 6 7183 7202 7203 7241 7242 7261
7223 6 7184 7203 7204 7242 7243 7262
7224 6 7185 7204 7205 7243 7244 7263
7225 6 7186 7205 7206 7244 7245 7264
7226 6 7187 7206 7207 7245 7246 7265
7227 6 7188 7207 7208 7246 7247 7266
7228 6 7189 7208 7209 7247 7248 7267
7229 6 7190 7209 7210 7248 7249 7268
7230 6 7191 7210 7211 7249 7250 7269
7231 6 7192 7211 7212 7250 7251 7270
7232 6 7193 7212 7213 7251 7252 7271
7233 3 7194 7214 7253
7234 6 7195 7214 7215 7253 7254 7273
7235 6 7196 7215 7216 7254 7255 7274
7236 6 7197 7216 7217 7255 7256 7275
7237 5 7198 7217 7218 7256 7257
7238 5 7199 7218 7219 7257 7258
7239 6 7200 7219 7220 7258 7259 7276
7240 6 7201 7220 7221 7259 7260 7277
7241 6 7202 7221 7222 7260 7261 7278
7242 6 7203 7222 7223 7261 7262 7279
7243 6 7204 7223 7224 7262 7263 7280
7244 6 7205 7224 7225 7263 7264 7281
7245 6 7206 7225 7226 7264 7265 7282
7246 6 7207 7226 7227 7265 7266 7283
7247 6 7208 7227 7228 7266 7267 7284
7248 6 7209 7228 7229 7267 7268 7285
7249 6 7210 7229 7230 7268 7269 7286
7250 6 7211 7230 7231 7269 7270 7287
7251 6 7212 7231 7232 7270 7271 7288
7252 5 7213 7232 7271 7272 7289
7253 4 7214 7233 7234 7273
7254 6 7215 7234 7235 7273 7274 7290
7255 6 7216 7235 7236 7274 7275 7291
7256 4 7217 7236 7237 7275
7257 3 7218 7237 7238
7258 4 7219 7238 7239 7276
7259 5 7220 7239 7240 7276 7277
7260 5 7221 7240 7241 7277 7278
7261 6 7222 7241 7242 7278 7279 7292
7262 6 7223 7242 7243 7279 7280 7293
7263 6 7224 7243 7244 7280 7281 7294
7264 6 7225 7244 7245 7281 7282 7295
7265 6 7226 7245 7246 7282 7283 7296
7266 6 7227 7246 7247 7283 7284 7297
7267 6 7228 7247 7248 7284 7285 7298
7268 6 7229 7248 7249 7285 7286 7299
7269 6 7230 7249 7250 7286 7287 7300
7270 6 7231 7250 7251 7287 7288 7301
7271 6 7232 7251 7252 7288 7289 7302
7272 3 7252 7289 7303
7273 5 7234 7253 7254 7290 7304
7274 6 7235 7254 7255 7290 7291 7305
7275 4 7236 7255 7256 7291
7276 3 7239 7258 7259
7277 3 7240 7259 7260
7278 4 7241 7260 7261 7292
7279 6 7242 7261 7262 7292 7293 7306
7280 6 7243 7262 7263 7293 7294 7307
7281 6 7244 7263 7264 7294 7295 7308
7282 6 7245 7264 7265 7295 7296 7309
7283 6 7246 7265 7266 7296 7297 7310
7284 6 7247 7266 7267 7297 7298 7311
7285 6 7248 7267 7268 7298 7299 7312
7286 6 7249 7268 7269 7299 7300 7313
7287 6 7250 7269 7270 7300 7301 7314
7288 6 7251 7270 7271 7301 7302 7315
7289 6 7252 7271 7272 7302 7303 7316
7290 6 7254 7273 7274 7304 7305 7317
7291 4 7255 7274 7275 7305
7292 4 7261 7278 7279 7306
7293 6 7262 7279 7280 7306 7307 7318
7294 6 7263 7280 7281 7307 7308 7319
7295 6 7264 7281 7282 7308 7309 7320
7296 6 7265 7282 7283 7309 7310 7321
7297 6 7266 7283 7284 7310 7311 7322
7298 6 7267 7284 7285 7311 7312 7323
7299 6 7268 7285 7286 7312 7313 7324
7300 6 7269 7286 7287 7313 7314 7325
7301 6 7270 7287 7288 7314 7315 7326
7302 6 7271 7288 7289 7315 7316 7327
7303 4 7272 7289 7316 7328
7304 3 7273 7290 7317
7305 4 7274 7290 7291 7317
7306 4 7279 7292 7293 7318
7307 5 7280 7293 7294 7318 7319
7308 5 7281 7294 7295 7319 7320
7309 6 7282 7295 7296 7320 7321 7329
7310 6 7283 7296 7297 7321 7322 7330
7311 6 7284 7297 7298 7322 7323 7331
7312 6 7285 7298 7299 7323 7324 7332
7313 6 7286 7299 7300 7324 7325 7333
7314 6 7287 7300 7301 7325 7326 7334
7315 6 7288 7301 7302 7326 7327 7335
7316 6 7289 7302 7303 7327 7328 7336
7317 3 7290 7304 7305
7318 3 7293 7306 7307
7319 3 7294 7307 7308
7320 5 7295 7308 7309 7329 7337
7321 6 7296 7309 7310 7329 7330 7338
7322 6 7297 7310 7311 7330 7331 7339
7323 6 7298 7311 7312 7331 7332 7340
7324 6 7299 7312 7313 7332 7333 7341
7325 6 7300 7313 7314 7333 7334 7342
7326 6 7301 7314 7315 7334 7335 7343
7327 6 7302 7315 7316 7335 7336 7344
7328 4 7303 7316 7336 7345
7329 6 7309 7320 7321 7337 7338 7346
7330 6 7310 7321 7322 7338 7339 7347
7331 6 7311 7322 7323 7339 7340 7348
7332 6 7312 7323 7324 7340 7341 7349
7333 6 7313 7324 7325 7341 7342 7350
7334 6 7314 7325 7326 7342 7343 7351
7335 6 7315 7326 7327 7343 7344 7352
7336 6 7316 7327 7328 7344 7345 7353
7337 4 7320 7329 7346 7355
7338 6 7321 7329 7330 7346 7347 7356
7339 6 7322 7330 7331 7347 7348 7357
7340 6 7323 7331 7332 7348 7349 7358
7341 6 7324 7332 7333 7349 7350 7359
7342 6 7325 7333 7334 7350 7351 7360
7343 6 7326 7334 7335 7351 7352 7361
7344 6 7327 7335 7336 7352 7353 7362
7345 5 7328 7336 7353 7354 7363
7346 6 7329 7337 7338 7355 7356 7365
7347 6 7330 7338 7339 7356 7357 7366
7348 6 7331 7339 7340 7357 7358 7367
7349 6 7332 7340 7341 7358 7359 7368
7350 6 7333 7341 7342 7359 7360 7369
7351 6 7334 7342 7343 7360 7361 7370
7352 6 7335 7343 7344 7361 7362 7371
7353 6 7336 7344 7345 7362 7363 7372
7354 4 7345 7363 7364 7373
7355 3 7337 7346 7365
7356 6 7338 7346 7347 7365 7366 7375
7357 6 7339 7347 7348 7366 7367 7376
7358 6 7340 7348 7349 7367 7368 7377
7359 6 7341 7349 7350 7368 7369 7378
7360 6 7342 7350 7351 7369 7370 7379
7361 6 7343 7351 7352 7370 7371 7380
7362 6 7344 7352 7353 7371 7372 7381
7363 6 7345 7353 7354 7372 7373 7382
7364 4 7354 7373 7374 7383
7365 4 7346 7355 7356 7375
7366 6 7347 7356 7357 7375 7376 7387
7367 6 7348 7357 7358 7376 7377 7388
7368 6 7349 7358 7359 7377 7378 7389
7369 6 7350 7359 7360 7378 7379 7390
7370 6 7351 7360 7361 7379 7380 7391
7371 6 7352 7361 7362 7380 7381 7392
7372 6 7353 7362 7363 7381 7382 7393
7373 6 7354 7363 7364 7382 7383 7394
7374 4 7364 7383 7384 7395
7375 5 7356 7365 7366 7387 7399
7376 6 7357 7366 7367 7387 7388 7400
7377 6 7358 7367 7368 7388 7389 7401
7378 6 7359 7368 7369 7389 7390 7402
7379 6 7360 7369 7370 7390 7391 7403
7380 6 7361 7370 7371 7391 7392 7404
7381 6 7362 7371 7372 7392 7393 7405
7382 6 7363 7372 7373 7393 7394 7406
7383 6 7364 7373 7374 7394 7395 7407
7384 4 7374 7395 7396 7408
7385 3 7396 7397 7409
7386 3 7397 7398 7410
7387 6 7366 7375 7376 7399 7400 7412
7388 6 7367 7376 7377 7400 7401 7413
7389 6 7368 7377 7378 7401 7402 7414
7390 6 7369 7378 7379 7402 7403 7415
7391 6 7370 7379 7380 7403 7404 7416
7392 6 7371 7380 7381 7404 7405 7417
7393 6 7372 7381 7382 7405 7406 7418
7394 6 7373 7382 7383 7406 7407 7419
7395 6 7374 7383 7384 7407 7408 7420
7396 5 7384 7385 7408 7409 7421
7397 5 7385 7386 7409 7410 7422
7398 4 7386 7410 7411 7423
7399 3 7375 7387 7412
7400 6 7376 7387 7388 7412 7413 7425
7401 6 7377 7388 7389 7413 7414 7426
7402 6 7378 7389 7390 7414 7415 7427
7403 6 7379 7390 7391 7415 7416 7428
7404 6 7380 7391 7392 7416 7417 7429
7405 6 7381 7392 7393 7417 7418 7430
7406 6 7382 7393 7394 7418 7419 7431
7407 6 7383 7394 7395 7419 7420 7432
7408 6 7384 7395 7396 7420 7421 7433
7409 6 7385 7396 7397 7421 7422 7434
7410 6 7386 7397 7398 7422 7423 7435
7411 4 7398 7423 7424 7436
7412 4 7387 7399 7400 7425
7413 6 7388 7400 7401 7425 7426 7437
7414 6 7389 7401 7402 7426 7427 7438
7415 6 7390 7402 7403 7427 7428 7439
7416 6 7391 7403 7404 7428 7429 7440
7417 6 7392 7404 7405 7429 7430 7441
7418 6 7393 7405 7406 7430 7431 7442
7419 6 7394 7406 7407 7431 7432 7443
7420 6 7395 7407 7408 7432 7433 7444
7421 6 7396 7408 7409 7433 7434 7445
7422 6 7397 7409 7410 7434 7435 7446
7423 6 7398 7410 7411 7435 7436 7447
7424 2 7411 7436
7425 5 7400 7412 7413 7437 7448
7426 6 7401 7413 7414 7437 7438 7449
7427 5 7402 7414 7415 7438 7439
7428 5 7403 7415 7416 7439 7440
7429 6 7404 7416 7417 7440 7441 7450
7430 6 7405 7417 7418 7441 7442 7451
7431 6 7406 7418 7419 7442 7443 7452
7432 6 7407 7419 7420 7443 7444 7453
7433 6 7408 7420 7421 7444 7445 7454
7434 6 7409 7421 7422 7445 7446 7455
7435 6 7410 7422 7423 7446 7447 7456
7436 5 7411 7423 7424 7447 7457
7437 6 7413 7425 7426 7448 7449 7458
7438 5 7414 7426 7427 7449 7459
7439 3 7415 7427 7428
7440 4 7416 7428 7429 7450
7441 6 7417 7429 7430 7450 7451 7460
7442 6 7418 7430 7431 7451 7452 7461
7443 6 7419 7431 7432 7452 7453 7462
7444 6 7420 7432 7433 7453 7454 7463
7445 6 7421 7433 7434 7454 7455 7464
7446 6 7422 7434 7435 7455 7456 7465
7447 6 7423 7435 7436 7456 7457 7466
7448 4 7425 7437 7458 7468
7449 6 7426 7437 7438 7458 7459 7469
7450 4 7429 7440 7441 7460
7451 6 7430 7441 7442 7460 7461 7470
7452 6 7431 7442 7443 7461 7462 7471
7453 6 7432 7443 7444 7462 7463 7472
7454 6 7433 7444 7445 7463 7464 7473
7455 6 7434 7445 7446 7464 7465 7474
7456 6 7435 7446 7447 7465 7466 7475
7457 5 7436 7447 7466 7467 7476
7458 6 7437 7448 7449 7468 7469 7477
7459 4 7438 7449 7469 7478
7460 4 7441 7450 7451 7470
7461 6 7442 7451 7452 7470 7471 7479
7462 6 7443 7452 7453 7471 7472 7480
7463 6 7444 7453 7454 7472 7473 7481
7464 6 7445 7454 7455 7473 7474 7482
7465 6 7446 7455 7456 7474 7475 7483
7466 6 7447 7456 7457 7475 7476 7484
7467 3 7457 7476 7485
7468 4 7448 7458 7477 7486
7469 6 7449 7458 7459 7477 7478 7487
7470 5 7451 7460 7461 7479 7488
7471 6 7452 7461 7462 7479 7480 7489
7472 6 7453 7462 7463 7480 7481 7490
7473 6 7454 7463 7464 7481 7482 7491
7474 6 7455 7464 7465 7482 7483 7492
7475 6 7456 7465 7466 7483 7484 7493
7476 6 7457 7466 7467 7484 7485 7494
7477 6 7458 7468 7469 7486 7487 7495
7478 3 7459 7469 7487
7479 6 7461 7470 7471 7488 7489 7496
7480 6 7462 7471 7472 7489 7490 7497
7481 6 7463 7472 7473 7490 7491 7498
7482 6 7464 7473 7474 7491 7492 7499
7483 6 7465 7474 7475 7492 7493 7500
7484 6 7466 7475 7476 7493 7494 7501
7485 3 7467 7476 7494
7486 3 7468 7477 7495
7487 4 7469 7477 7478 7495
7488 3 7470 7479 7496
7489 6 7471 7479 7480 7496 7497 7502
7490 6 7472 7480 7481 7497 7498 7503
7491 6 7473 7481 7482 7498 7499 7504
7492 6 7474 7482 7483 7499 7500 7505
7493 5 7475 7483 7484 7500 7501
7494 4 7476 7484 7485 7501
7495 3 7477 7486 7487
7496 4 7479 7488 7489 7502
7497 6 7480 7489 7490 7502 7503 7506
7498 6 7481 7490 7491 7503 7504 7507
7499 6 7482 7491 7492 7504 7505 7508
7500 4 7483 7492 7493 7505
7501 3 7484 7493 7494
7502 4 7489 7496 7497 7506
7503 6 7490 7497 7498 7506 7507 7509
7504 6 7491 7498 7499 7507 7508 7510
7505 4 7492 7499 7500 7508
7506 5 7497 7502 7503 7509 7511
7507 6 7498 7503 7504 7509 7510 7512
7508 4 7499 7504 7505 7510
7509 6 7503 7506 7507 7511 7512 7513
7510 5 7504 7507 7508 7512 7514
7511 3 7506 7509 7513
7512 6 7507 7509 7510 7513 7514 7515
7513 4 7509 7511 7512 7515
7514 3 7510 7512 7515
7515 3 7512 7513 7514
